*Heading
 Yarn
** Job name: Yarn Model name: Model-1
** Generated by: Abaqus/CAE 2024
*Preprint, echo=NO, model=NO, history=NO, contact=NO
**
** PARTS
**
*Part, name=YARN
*Node
      1, -0.230000004, 0.0601999983,           0.
      2, -0.229893997, 0.0601669997, -0.00199700007
      3, -0.229789004, 0.0600670017, -0.00399200013
      4, -0.229682997, 0.0599020012, -0.00598199992
      5, -0.229578003, 0.0596700013, -0.00796599966
      6, -0.229471996, 0.0593729988, -0.00994099956
      7, -0.229366004, 0.0590110011, -0.0119049996
      8, -0.229260996, 0.0585840009, -0.0138560003
      9, -0.229155004, 0.0580920018, -0.0157919992
     10, -0.229049996, 0.0575359985, -0.0177100003
     11, -0.228944004, 0.0569170006, -0.0196090005
     12, -0.228837997, 0.0562350005, -0.0214859992
     13, -0.228733003, 0.0554910004, -0.0233389996
     14, -0.228626996, 0.0546870008, -0.0251669995
     15, -0.228521004, 0.0538219996, -0.0269670002
     16, -0.228415996, 0.0528969988, -0.0287379995
     17, -0.228310004, 0.0519150011, -0.0304770004
     18, -0.228204995,  0.050875999, -0.0321820006
     19, -0.228099003,      0.04978, -0.0338519998
     20, -0.227992997, 0.0486299992, -0.0354849994
     21, -0.227888003, 0.0474260002, -0.0370780006
     22, -0.227781996,      0.04617, -0.0386309996
     23, -0.227677003, 0.0448630005, -0.0401419997
     24, -0.227570996, 0.0435069986, -0.0416079983
     25, -0.227465004,     0.042103, -0.0430280007
     26, -0.227359995, 0.0406519994, -0.0444010012
     27, -0.227254003, 0.0391569994, -0.0457249992
     28, -0.227148995, 0.0376189984,    -0.046999
     29, -0.227043003, 0.0360389985, -0.0482209995
     30, -0.226936996, 0.0344190001, -0.0493899994
     31, -0.226832002, 0.0327619985, -0.050503999
     32, -0.226725996, 0.0310689993, -0.0515629984
     33, -0.226621002, 0.0293409992, -0.052565001
     34, -0.226514995, 0.0275810007, -0.0535099991
     35, -0.226409003, 0.0257910006, -0.0543950014
     36, -0.226303995, 0.0239729993, -0.0552209988
     37, -0.226198003, 0.0221280009, -0.0559859984
     38, -0.226091996, 0.0202580001, -0.0566890016
     39, -0.225987002, 0.0183669999, -0.0573300011
     40, -0.225880995, 0.0164550003, -0.0579070002
     41, -0.225776002,     0.014525, -0.0584210008
     42, -0.225669995, 0.0125789996, -0.058871001
     43, -0.225564003, 0.0106189996, -0.0592559986
     44, -0.225458995, 0.00864799973, -0.059576001
     45, -0.225353003, 0.00666699978, -0.0598299988
     46, -0.225247994, 0.00467800023, -0.0600179993
     47, -0.225142002, 0.00268499996, -0.0601399988
     48, -0.225035995, 0.000689000008, -0.0601960011
     49, -0.224931002, -0.00130899996, -0.0601859987
     50, -0.224824995, -0.00330400001, -0.0601090007
     51, -0.224720001, -0.00529599981,    -0.059967
     52, -0.224613994, -0.00728299981, -0.0597580001
     53, -0.224508002, -0.00926099997, -0.0594829991
     54, -0.224402994, -0.0112290001, -0.0591429994
     55, -0.224297002,    -0.013185, -0.0587380007
     56, -0.224191993, -0.0151260002, -0.0582690015
     57, -0.224086002, -0.0170510001, -0.0577349998
     58, -0.223979995,    -0.018956, -0.0571370013
     59, -0.223875001, -0.0208410006, -0.0564769991
     60, -0.223768994, -0.0227029994, -0.0557550006
     61, -0.223664001, -0.0245399997, -0.0549709983
     62, -0.223557994, -0.0263500009, -0.0541270003
     63, -0.223452002, -0.0281310007, -0.053222999
     64, -0.223346993, -0.0298810005, -0.0522600003
     65, -0.223241001, -0.0315980017, -0.0512400009
     66, -0.223134995, -0.0332809985, -0.0501639992
     67, -0.223030001, -0.034926001, -0.049031999
     68, -0.222923994, -0.0365340002, -0.047846999
     69,    -0.222819, -0.0381009988, -0.0466089994
     70, -0.222712994, -0.0396259986, -0.0453189984
     71, -0.222607002, -0.0411069989, -0.0439799987
     72, -0.222501993, -0.0425439999, -0.0425920002
     73, -0.222396001, -0.0439330004, -0.0411569998
     74, -0.222290993, -0.0452740006, -0.0396770015
     75, -0.222185001,    -0.046565, -0.0381539986
     76, -0.222078994, -0.0478050001, -0.0365879983
     77,    -0.221974, -0.0489929989, -0.0349819995
     78, -0.221867993, -0.0501260012, -0.0333379991
     79,    -0.221763, -0.0512039997, -0.0316569991
     80, -0.221656993, -0.0522259995,    -0.029941
     81, -0.221551001, -0.0531909987, -0.0281920005
     82, -0.221445993, -0.0540970005, -0.0264120009
     83, -0.221340001, -0.054942999, -0.0246029999
     84, -0.221235007, -0.0557290018, -0.0227669999
     85,    -0.221129, -0.0564530008, -0.0209049992
     86, -0.221022993, -0.0571160018, -0.0190210007
     87,    -0.220918, -0.0577149987, -0.0171160009
     88, -0.220811993, -0.0582510009, -0.0151920002
     89, -0.220706001, -0.0587229989, -0.0132520003
     90, -0.220601007, -0.0591310002, -0.0112960003
     91,    -0.220495, -0.0594730005, -0.00932899956
     92, -0.220390007, -0.0597489998, -0.00735099986
     93,    -0.220284, -0.0599600002, -0.00536500011
     94, -0.220177993, -0.0601049997, -0.00337300007
     95,    -0.220073, -0.0601839982, -0.00137700001
     96, -0.219966993, -0.0601969995, 0.000620000006
     97, -0.219861999, -0.0601430014, 0.0026169999
     98, -0.219756007, -0.0600229986, 0.00461000018
     99,     -0.21965, -0.0598369986, 0.00659900019
    100, -0.219545007, -0.0595850013, 0.00858000014
    101,    -0.219439, -0.0592680015, 0.0105520003
    102, -0.219334006, -0.0588850006, 0.0125120003
    103, -0.219227999, -0.0584379993, 0.0144579997
    104, -0.219121993, -0.0579259992, 0.0163889993
    105, -0.219016999, -0.0573499985, 0.0183010008
    106, -0.218911007, -0.0567120016, 0.0201939996
    107, -0.218805999, -0.0560109988, 0.0220640004
    108, -0.218700007, -0.0552479997, 0.0239100009
    109,    -0.218594, -0.054423999, 0.0257290006
    110, -0.218489006, -0.0535410009, 0.0275199991
    111, -0.218382999, -0.0525990017, 0.0292809997
    112, -0.218277007, -0.0515989996,      0.03101
    113, -0.218171999, -0.0505409986, 0.0327050015
    114, -0.218066007, -0.0494289994, 0.0343630016
    115, -0.217960998, -0.0482620001, 0.0359839983
    116, -0.217855006, -0.0470409989, 0.0375650004
    117,    -0.217749, -0.0457689986, 0.0391050018
    118, -0.217644006, -0.0444470011, 0.0406019986
    119, -0.217537999, -0.0430760011, 0.0420540012
    120, -0.217433006, -0.0416570008, 0.0434589982
    121, -0.217326999, -0.0401920006, 0.0448170006
    122, -0.217221007, -0.0386839993, 0.0461260006
    123, -0.217115998, -0.0371319987, 0.0473840013
    124, -0.217010006, -0.0355399996, 0.0485889986
    125, -0.216904998, -0.0339090005, 0.0497409999
    126, -0.216799006, -0.0322399996, 0.0508389995
    127, -0.216692999, -0.0305359997, 0.0518799983
    128, -0.216588005, -0.0287980009, 0.0528649986
    129, -0.216481999, -0.0270290002, 0.0537910014
    130, -0.216377005, -0.0252299998, 0.0546579994
    131, -0.216270998, -0.0234030001, 0.0554650016
    132, -0.216165006, -0.0215499997, 0.0562109984
    133, -0.216059998, -0.0196729992, 0.0568940006
    134, -0.215954006, -0.0177749991, 0.0575160012
    135, -0.215847999, -0.0158580001, 0.0580740012
    136, -0.215743005, -0.0139220003, 0.0585680008
    137, -0.215636998, -0.0119719999, 0.0589970015
    138, -0.215532005, -0.0100079998, 0.0593620017
    139, -0.215425998, -0.00803400017,  0.059661001
    140, -0.215320006, -0.00604999997, 0.0598950014
    141, -0.215214998, -0.00406000018, 0.0600630008
    142, -0.215109006, -0.00206499989, 0.0601640008
    143, -0.215003997, -6.80000012e-05, 0.0601999983
    144, -0.214898005, 0.00192800001, 0.0601690002
    145, -0.214791998, 0.00392299984, 0.0600720011
    146, -0.214687005, 0.00591399986,  0.059909001
    147, -0.214580998, 0.00789800007, 0.0596799999
    148, -0.214476004, 0.00987299997, 0.0593850017
    149, -0.214369997, 0.0118380003, 0.0590239987
    150, -0.214264005,     0.013789, 0.0585989989
    151, -0.214158997, 0.0157249998, 0.0581099987
    152, -0.214053005, 0.0176439993, 0.0575559996
    153, -0.213947996, 0.0195439998, 0.0569389984
    154, -0.213842005, 0.0214220006, 0.0562589988
    155, -0.213735998, 0.0232759994, 0.0555180013
    156, -0.213631004, 0.0251049995, 0.0547150001
    157, -0.213524997, 0.0269060005, 0.0538519993
    158, -0.213419005,     0.028678, 0.0529300012
    159, -0.213313997, 0.0304179993, 0.0519500002
    160, -0.213208005, 0.0321240015, 0.0509120002
    161, -0.213102996, 0.0337960012, 0.0498190001
    162, -0.212997004, 0.0354299992, 0.0486700013
    163, -0.212890998, 0.0370250009, 0.0474679992
    164, -0.212786004, 0.0385789983, 0.0462139994
    165, -0.212679997, 0.0400899984, 0.0449079983
    166, -0.212575004, 0.0415580012, 0.0435540006
    167, -0.212468997, 0.0429800004, 0.0421510004
    168, -0.212363005, 0.0443550013, 0.0407029986
    169, -0.212257996, 0.0456800014, 0.0392090008
    170, -0.212152004,  0.046955999, 0.0376719981
    171, -0.212046996,  0.048179999, 0.0360939987
    172, -0.211941004, 0.0493500009, 0.0344760008
    173, -0.211834997, 0.0504669994, 0.0328200012
    174, -0.211730003, 0.0515279993, 0.0311270002
    175, -0.211623996, 0.0525319986, 0.0294010006
    176, -0.211519003, 0.0534779988, 0.0276420005
    177, -0.211412996,     0.054366, 0.0258530006
    178, -0.211307004, 0.0551940016, 0.0240349993
    179, -0.211201996, 0.0559610017, 0.0221909992
    180, -0.211096004, 0.0566660017, 0.0203230008
    181, -0.210990995, 0.0573090017, 0.0184320007
    182, -0.210885003, 0.0578880012, 0.0165209994
    183, -0.210778996, 0.0584050007,     0.014591
    184, -0.210674003, 0.0588570014, 0.0126459999
    185, -0.210567996, 0.0592439994, 0.0106870001
    186, -0.210462004, 0.0595659986, 0.00871600024
    187, -0.210356995, 0.0598220006, 0.00673499983
    188, -0.210251004, 0.0600120015, 0.00474700006
    189, -0.210145995, 0.0601369999, 0.00275300001
    190, -0.210040003,  0.060194999, 0.000757000002
    191, -0.209933996, 0.0601870008, -0.00124000001
    192, -0.209829003, 0.0601130016, -0.00323599996
    193, -0.209722996, 0.0599719994, -0.00522800023
    194, -0.209618002, 0.0597659983, -0.00721500022
    195, -0.209511995, 0.0594939999, -0.00919300038
    196, -0.209406003, 0.0591560006, -0.0111619998
    197, -0.209300995, 0.0587529987, -0.0131179998
    198, -0.209195003,     0.058286, -0.0150600001
    199, -0.209089994, 0.0577539988, -0.0169849992
    200, -0.208984002, 0.0571589991, -0.0188909993
    201, -0.208877996, 0.0565010011, -0.0207770001
    202, -0.208773002, 0.0557809994, -0.0226399992
    203, -0.208666995, 0.0549990013, -0.0244779997
    204, -0.208562002, 0.0541560017, -0.0262889992
    205, -0.208455995, 0.0532549992, -0.0280709993
    206, -0.208350003,  0.052294001, -0.0298219994
    207, -0.208244994, 0.0512759984, -0.0315399989
    208, -0.208139002, 0.0502020009, -0.0332240015
    209, -0.208032995, 0.0490720011, -0.0348699987
    210, -0.207928002, 0.0478879996,    -0.036479
    211, -0.207821995, 0.0466520004, -0.0380479991
    212, -0.207717001, 0.0453639999, -0.039574001
    213, -0.207610995, 0.0440270007, -0.0410570018
    214, -0.207505003, 0.0426400006, -0.0424950011
    215, -0.207399994, 0.0412070006, -0.0438859984
    216, -0.207294002, 0.0397289991, -0.0452289991
    217, -0.207188994, 0.0382069983, -0.0465219989
    218, -0.207083002, 0.0366420001, -0.0477639996
    219, -0.206976995, 0.0350380018, -0.0489530005
    220, -0.206872001, 0.0333949998, -0.0500879996
    221, -0.206765994, 0.0317149982, -0.0511679985
    222, -0.206661001, 0.0299999993, -0.0521919988
    223, -0.206554994,     0.028252, -0.0531589985
    224, -0.206449002, 0.0264730006, -0.0540670007
    225, -0.206343994, 0.0246649999, -0.0549149998
    226, -0.206238002, 0.0228300001, -0.0557029992
    227, -0.206132993,      0.02097, -0.0564300008
    228, -0.206027001, 0.0190859996, -0.0570940003
    229, -0.205920994,     0.017182, -0.0576959997
    230, -0.205816001, 0.0152580002, -0.0582339987
    231, -0.205709994, 0.0133180004, -0.0587080009
    232, -0.205604002, 0.0113639999, -0.0591179989
    233, -0.205498993, 0.00939599983, -0.0594619997
    234, -0.205393001, 0.00741899991, -0.0597410016
    235, -0.205287993, 0.00543300016, -0.0599539988
    236, -0.205182001, 0.00344099989, -0.0601009987
    237, -0.205075994, 0.00144499994, -0.0601820014
    238, -0.204971001, -0.000552000012, -0.0601969995
    239, -0.204864994, -0.00254800008, -0.0601460002
    240,     -0.20476, -0.00454200013, -0.0600280017
    241, -0.204653993, -0.00653100014, -0.0598450005
    242, -0.204548001, -0.00851199962,    -0.059595
    243, -0.204442993, -0.0104839997, -0.0592800006
    244, -0.204337001,    -0.012445, -0.0588990003
    245, -0.204232007, -0.0143919997, -0.0584539995
    246,    -0.204126, -0.0163230002, -0.0579449981
    247, -0.204019994, -0.0182360001, -0.0573710017
    248,    -0.203915, -0.0201290008, -0.0567350015
    249, -0.203808993, -0.0219999999, -0.0560359992
    250,    -0.203704, -0.0238470007, -0.0552750006
    251, -0.203597993, -0.0256670006, -0.0544539988
    252, -0.203492001, -0.0274599995, -0.0535719991
    253, -0.203387007, -0.0292220004, -0.0526320003
    254,    -0.203281, -0.0309510008, -0.0516339988
    255, -0.203174993, -0.0326469988, -0.0505779982
    256,     -0.20307, -0.0343069993, -0.0494679995
    257, -0.202963993, -0.0359289981, -0.0483030006
    258, -0.202858999, -0.0375120007,    -0.047084
    259, -0.202753007, -0.0390530005, -0.0458140001
    260, -0.202647001, -0.0405509993, -0.044493001
    261, -0.202542007, -0.0420049988, -0.0431229994
    262,    -0.202436, -0.0434119999, -0.0417059995
    263, -0.202331007, -0.0447719991, -0.0402429998
    264,    -0.202225, -0.0460820012, -0.0387360007
    265, -0.202118993, -0.0473410003, -0.0371860005
    266, -0.202013999, -0.0485490002, -0.0355949998
    267, -0.201908007, -0.0497029983, -0.033964999
    268, -0.201802999, -0.0508019999, -0.0322979987
    269, -0.201697007, -0.0518460013, -0.0305950008
    270,    -0.201591,    -0.052832, -0.0288580004
    271, -0.201486006, -0.0537599996,     -0.02709
    272,     -0.20138, -0.0546290018, -0.0252919998
    273, -0.201275006, -0.0554380007, -0.0234660003
    274, -0.201168999, -0.0561860017, -0.0216140002
    275, -0.201063007, -0.0568719991, -0.0197379999
    276, -0.200957999, -0.0574950017, -0.0178410001
    277, -0.200852007, -0.0580560006, -0.0159230009
    278,    -0.200746, -0.0585520007, -0.0139889996
    279, -0.200641006, -0.0589840002, -0.0120390002
    280, -0.200534999, -0.0593510009, -0.0100760004
    281, -0.200430006, -0.0596520007, -0.00810100045
    282, -0.200323999, -0.0598880015, -0.00611800002
    283, -0.200218007, -0.0600580014, -0.00412799977
    284, -0.200112998, -0.0601620004, -0.00213399995
    285, -0.200007007, -0.0601999983, -0.000136999995
    286, -0.199901998, -0.0601710007, 0.00185999996
    287, -0.199796006, -0.0600759983, 0.00385500002
    288, -0.199689999, -0.0599149987, 0.00584599981
    289, -0.199585006, -0.0596879981, 0.00782999955
    290, -0.199478999, -0.0593959987, 0.0098059997
    291, -0.199374005, -0.0590379983,     0.011771
    292, -0.199267998, -0.0586149991,     0.013723
    293, -0.199162006, -0.0581270009, 0.0156590007
    294, -0.199056998, -0.0575760007, 0.0175790004
    295, -0.198951006,    -0.056961, 0.0194789991
    296, -0.198845997, -0.0562839992, 0.0213580001
    297, -0.198740005, -0.0555440001, 0.0232129991
    298, -0.198633999, -0.0547440015, 0.0250429995
    299, -0.198529005, -0.0538830012, 0.0268450007
    300, -0.198422998, -0.0529629998, 0.0286180004
    301, -0.198318005, -0.051984001,     0.030359
    302, -0.198211998, -0.0509489998, 0.0320670009
    303, -0.198106006, -0.0498570018, 0.0337390006
    304, -0.198000997, -0.0487099998, 0.0353740007
    305, -0.197895005, -0.0475100018, 0.0369700007
    306, -0.197788998, -0.0462570004, 0.0385259986
    307, -0.197684005, -0.0449539982, 0.0400389992
    308, -0.197577998, -0.0436009988, 0.0415089987
    309, -0.197473004, -0.0421999991,     0.042932
    310, -0.197366998, -0.0407529995, 0.0443079993
    311, -0.197261006, -0.0392609984, 0.0456359982
    312, -0.197155997, -0.0377250016, 0.0469130017
    313, -0.197050005, -0.0361480005, 0.0481389984
    314, -0.196944997, -0.0345319994, 0.0493110009
    315, -0.196839005, -0.0328769982, 0.0504290015
    316, -0.196732998, -0.0311859995, 0.0514920019
    317, -0.196628004, -0.0294610001, 0.0524980016
    318, -0.196521997, -0.0277030002, 0.0534470007
    319, -0.196417004, -0.0259150006, 0.0543360002
    320, -0.196310997, -0.0240979996, 0.0551659986
    321, -0.196205005, -0.0222549997, 0.0559349991
    322, -0.196099997, -0.0203869995, 0.0566430017
    323, -0.195994005, -0.0184969995, 0.0572879985
    324, -0.195888996, -0.0165860001, 0.0578700006
    325, -0.195783004, -0.0146580003, 0.0583879985
    326, -0.195676997, -0.0127130002, 0.0588419996
    327, -0.195572004, -0.0107540004, 0.0592309982
    328, -0.195465997, -0.00878299959, 0.0595559999
    329, -0.195360005, -0.00680299988, 0.0598139986
    330, -0.195254996, -0.00481500011, 0.0600069985
    331, -0.195149004, -0.00282200007, 0.0601340011
    332, -0.195043996, -0.000824999996, 0.0601940006
    333, -0.194938004, 0.00117199996, 0.0601879992
    334, -0.194831997, 0.00316799991, 0.0601160005
    335, -0.194727004, 0.00516000018, 0.0599780008
    336, -0.194620997, 0.00714700017, 0.0597740002
    337, -0.194516003, 0.00912600011, 0.0595039986
    338, -0.194409996, 0.0110950004, 0.0591689982
    339, -0.194304004, 0.0130510004, 0.0587680005
    340, -0.194198996, 0.0149929998, 0.0583029985
    341, -0.194093004, 0.0169190001, 0.0577730015
    342, -0.193987995, 0.0188260004, 0.0571799986
    343, -0.193882003, 0.0207129996, 0.0565240011
    344, -0.193775997, 0.0225760005, 0.0558059998
    345, -0.193671003, 0.0244149994, 0.0550270006
    346, -0.193564996, 0.0262269992, 0.0541860014
    347, -0.193460003, 0.0280099995, 0.0532869995
    348, -0.193353996, 0.0297619998, 0.0523280017
    349, -0.193248004, 0.0314819999, 0.0513119996
    350, -0.193142995, 0.0331659988, 0.0502390005
    351, -0.193037003, 0.0348149985, 0.0491119996
    352, -0.192930996, 0.0364249982, 0.0479299985
    353, -0.192826003, 0.0379949994, 0.0466950014
    354, -0.192719996, 0.0395230018, 0.0454090014
    355, -0.192615002,  0.041007001, 0.0440730006
    356, -0.192508996, 0.0424470007, 0.0426880009
    357, -0.192403004, 0.0438390002, 0.0412570015
    358, -0.192297995, 0.0451840013, 0.0397799984
    359, -0.192192003, 0.0464779995, 0.0382589996
    360, -0.192086995, 0.0477220006, 0.0366959982
    361, -0.191981003, 0.0489129983, 0.0350929983
    362, -0.191874996, 0.0500500016, 0.0334509984
    363, -0.191770002,  0.051132001,  0.031773001
    364, -0.191663995, 0.0521580018, 0.0300590005
    365, -0.191559002, 0.0531259999, 0.0283119995
    366, -0.191452995, 0.0540359989, 0.0265340004
    367, -0.191347003, 0.0548870005, 0.0247269999
    368, -0.191241995, 0.0556770004, 0.0228930004
    369, -0.191136003, 0.0564059988, 0.0210340004
    370, -0.191030994, 0.0570719987, 0.0191510003
    371, -0.190925002, 0.0576759987, 0.0172470007
    372, -0.190818995, 0.0582170002, 0.0153249996
    373, -0.190714002, 0.0586929992, 0.0133849997
    374, -0.190607995, 0.0591050014, 0.0114310002
    375, -0.190502003, 0.0594509989, 0.00946400035
    376, -0.190396994, 0.0597320013, 0.00748600019
    377, -0.190291002, 0.0599480011, 0.00550100021
    378, -0.190185994, 0.0600970015, 0.00350899994
    379, -0.190080002, 0.0601809993,     0.001514
    380, -0.189973995, 0.0601980016, -0.000483000011
    381, -0.189869002, 0.0601489991, -0.00248000002
    382, -0.189762995,  0.060033001, -0.00447400007
    383, -0.189658001, 0.0598520003, -0.00646300009
    384, -0.189551994, 0.0596040003, -0.00844500028
    385, -0.189446002, 0.0592919998, -0.0104170004
    386, -0.189340994, 0.0589139983, -0.0123779997
    387, -0.189235002, 0.0584710017, -0.0143259997
    388, -0.189129993, 0.0579629987, -0.0162569992
    389, -0.189024001, 0.0573920012, -0.0181709994
    390, -0.188917994, 0.0567580014, -0.0200650003
    391, -0.188813001, 0.0560609996, -0.0219369996
    392, -0.188706994, 0.0553020015, -0.0237840004
    393,    -0.188602, 0.0544830002, -0.0256060008
    394, -0.188495994, 0.0536030009, -0.0273989998
    395, -0.188390002, 0.0526649989, -0.0291620009
    396, -0.188284993, 0.0516690016, -0.0308929998
    397, -0.188179001, 0.0506159998, -0.0325900018
    398, -0.188072994, 0.0495069996, -0.0342510007
    399, -0.187968001, 0.0483429991, -0.0358740017
    400, -0.187861994,  0.047127001, -0.0374579988
    401,    -0.187757, 0.0458579995, -0.0390009992
    402, -0.187650993, 0.0445390008, -0.0405009985
    403, -0.187545002, 0.0431709997,    -0.041956
    404, -0.187439993, 0.0417560004, -0.0433650017
    405, -0.187334001,  0.040293999, -0.0447259992
    406, -0.187228993, 0.0387879983, -0.0460380018
    407, -0.187123001, 0.0372399986, -0.0472990014
    408, -0.187016994,      0.03565, -0.0485090017
    409,    -0.186912, 0.0340219997, -0.0496639982
    410, -0.186805993, 0.0323549993, -0.0507659987
    411,    -0.186701, 0.0306540001, -0.0518109985
    412, -0.186594993, 0.0289179999, -0.0527990013
    413, -0.186489001, 0.0271509998, -0.0537299998
    414, -0.186384007, 0.0253539998, -0.0546009988
    415,    -0.186278, 0.0235280003, -0.0554109998
    416, -0.186173007, 0.0216770004, -0.0561610013
    417,    -0.186067, 0.0198020004, -0.0568500012
    418, -0.185960993, 0.0179060008, -0.0574750006
    419,    -0.185856,     0.015989,    -0.058038
    420, -0.185749993, 0.0140549997, -0.0585360005
    421, -0.185644001, 0.0121060004, -0.0589700006
    422, -0.185539007, 0.0101429997, -0.0593390018
    423,    -0.185433, 0.00816900004, -0.0596430004
    424, -0.185328007, 0.00618600007, -0.0598810017
    425,    -0.185222, 0.00419599982, -0.0600529984
    426, -0.185115993,     0.002202, -0.0601599999
    427, -0.185010999, 0.000205000004, -0.0601989999
    428, -0.184904993, -0.00179200002, -0.0601730011
    429, -0.184799999, -0.00378699997, -0.0600810014
    430, -0.184694007, -0.00577800022, -0.0599219985
    431,    -0.184588, -0.00776199996, -0.0596969984
    432, -0.184483007, -0.00973800011, -0.0594069995
    433,    -0.184377, -0.0117039997, -0.0590509996
    434, -0.184272006, -0.0136559997, -0.0586300008
    435, -0.184165999, -0.0155929998, -0.0581450015
    436, -0.184060007, -0.0175139997, -0.0575960018
    437, -0.183954999, -0.0194140002, -0.0569830015
    438, -0.183849007, -0.0212939996, -0.0563080013
    439, -0.183743998, -0.0231500007, -0.055571001
    440, -0.183638006, -0.0249809995, -0.0547720008
    441,    -0.183532, -0.0267840009, -0.053913001
    442, -0.183427006, -0.0285580009,    -0.052995
    443, -0.183320999, -0.0303000007, -0.0520190001
    444, -0.183216006, -0.0320090018, -0.050985001
    445, -0.183109999, -0.0336819999, -0.0498949997
    446, -0.183004007, -0.0353190005, -0.0487499982
    447, -0.182898998, -0.036917001, -0.0475520007
    448, -0.182793006, -0.038474001, -0.0463009998
    449, -0.182686999, -0.0399879999, -0.0449989997
    450, -0.182582006, -0.0414590016, -0.0436480008
    451, -0.182475999, -0.0428839996, -0.0422490016
    452, -0.182371005, -0.0442619994, -0.0408030003
    453, -0.182264999, -0.0455910005, -0.0393120013
    454, -0.182159007, -0.0468700007, -0.0377780013
    455, -0.182053998, -0.0480969995, -0.0362030007
    456, -0.181948006, -0.0492720008, -0.0345869996
    457, -0.181842998, -0.0503919981, -0.0329339989
    458, -0.181737006, -0.051456999, -0.0312440004
    459, -0.181630999, -0.0524649993, -0.0295199994
    460, -0.181526005, -0.0534150004,    -0.027764
    461, -0.181419998, -0.0543069988, -0.0259760004
    462, -0.181315005, -0.0551390015, -0.0241609998
    463, -0.181208998, -0.0559099987,    -0.022318
    464, -0.181103006, -0.0566200018,    -0.020451
    465, -0.180997998, -0.057266999, -0.0185620002
    466, -0.180892006, -0.0578510016, -0.0166519992
    467, -0.180786997,    -0.058371, -0.0147240004
    468, -0.180681005,    -0.058828, -0.0127800005
    469, -0.180574998, -0.059218999, -0.0108209997
    470, -0.180470005, -0.0595460013, -0.00885100011
    471, -0.180363998, -0.0598060004, -0.00687099993
    472, -0.180258006, -0.0600010008, -0.00488300016
    473, -0.180152997, -0.0601300001, -0.00288999989
    474, -0.180047005, -0.0601929985, -0.000893999997
    475, -0.179941997, -0.0601899996, 0.00110300002
    476, -0.179836005, -0.0601200014, 0.00309900008
    477, -0.179729998, -0.0599839985, 0.00509200012
    478, -0.179625005, -0.0597819984, 0.00707900012
    479, -0.179518998, -0.059514001, 0.00905799959
    480, -0.179414004, -0.059181001, 0.0110269999
    481, -0.179307997, -0.0587829985, 0.0129850004
    482, -0.179202005, -0.0583200008, 0.0149269998
    483, -0.179096997, -0.0577920005, 0.0168539993
    484, -0.178991005, -0.0572020002, 0.0187609997
    485, -0.178885996, -0.0565479994, 0.0206489991
    486, -0.178780004, -0.0558319986, 0.0225130003
    487, -0.178673998, -0.0550540015, 0.0243529994
    488, -0.178569004, -0.0542160012, 0.0261659995
    489, -0.178462997, -0.0533180013,      0.02795
    490, -0.178358003, -0.0523619987, 0.0297030006
    491, -0.178251997, -0.0513480008, 0.0314240009
    492, -0.178146005, -0.0502769984, 0.0331090018
    493, -0.178040996, -0.0491509996, 0.0347589999
    494, -0.177935004, -0.047970999, 0.0363700017
    495, -0.177828997, -0.0467379987, 0.0379419997
    496, -0.177724004, -0.0454539992, 0.0394710004
    497, -0.177617997, -0.0441199988, 0.0409570001
    498, -0.177513003, -0.0427369997, 0.0423979983
    499, -0.177406996, -0.0413069986, 0.0437919982
    500, -0.177301005, -0.0398310013, 0.0451389998
    501, -0.177195996, -0.0383119993, 0.0464349985
    502, -0.177090004, -0.0367509983, 0.0476800017
    503, -0.176984996, -0.0351490006, 0.0488729998
    504, -0.176879004, -0.033507999, 0.0500119999
    505, -0.176772997,    -0.031831, 0.0510959998
    506, -0.176668003, -0.0301179998, 0.0521240011
    507, -0.176561996, -0.0283729993, 0.0530939996
    508, -0.176457003, -0.0265960004, 0.0540059991
    509, -0.176350996, -0.0247900002, 0.0548590012
    510, -0.176245004, -0.0229560006, 0.0556510016
    511, -0.176139995, -0.0210980009, 0.0563820004
    512, -0.176034003, -0.0192159992, 0.0570509993
    513, -0.175928995, -0.0173129998, 0.0576569997
    514, -0.175823003, -0.0153909996, 0.0581989996
    515, -0.175716996,    -0.013452, 0.0586780012
    516, -0.175612003, -0.0114979995, 0.0590920001
    517, -0.175505996, -0.0095309997, 0.0594400018
    518, -0.175400004, -0.00755399978, 0.0597239994
    519, -0.175294995, -0.0055689998, 0.0599419996
    520, -0.175189003,    -0.003578, 0.0600939989
    521, -0.175083995, -0.00158200006, 0.0601789989
    522, -0.174978003, 0.000414999988, 0.0601980016
    523, -0.174871996, 0.00241199997, 0.0601520017
    524, -0.174767002, 0.00440600002, 0.0600389987
    525, -0.174660996, 0.00639500003, 0.0598590001
    526, -0.174556002, 0.00837699976,  0.059613999
    527, -0.174449995, 0.0103500001, 0.0593030006
    528, -0.174344003, 0.0123110004, 0.0589269996
    529, -0.174238995, 0.0142590003, 0.0584870018
    530, -0.174133003, 0.0161920004, 0.0579820015
    531, -0.174027994, 0.0181060005, 0.0574130006
    532, -0.173922002, 0.0199999996, 0.0567799993
    533, -0.173815995, 0.0218729991, 0.0560860001
    534, -0.173711002, 0.0237210002, 0.0553289987
    535, -0.173604995, 0.0255440008, 0.0545120016
    536, -0.173500001,     0.027338, 0.0536350012
    537, -0.173393995, 0.0291019995, 0.0526980013
    538, -0.173288003, 0.0308340006, 0.0517040007
    539, -0.173182994, 0.0325319991, 0.0506520011
    540, -0.173077002, 0.0341949984, 0.0495459996
    541, -0.172970995, 0.0358190015, 0.0483839996
    542, -0.172866002, 0.0374049991, 0.0471689999
    543, -0.172759995, 0.0389490016, 0.0459019989
    544, -0.172655001, 0.0404499993, 0.0445850007
    545, -0.172548994, 0.0419070013, 0.0432190001
    546, -0.172443002, 0.0433170013, 0.0418049991
    547, -0.172337994, 0.0446799994, 0.0403449982
    548, -0.172232002, 0.0459939986, 0.0388410017
    549, -0.172126994, 0.0472569987, 0.0372940004
    550, -0.172021002, 0.0484680012, 0.0357050002
    551, -0.171914995, 0.0496260002, 0.0340779983
    552, -0.171810001, 0.0507289991, 0.0324129984
    553, -0.171703994, 0.0517759994, 0.0307129994
    554, -0.171599001,  0.052765999, 0.0289779995
    555, -0.171492994, 0.0536990017, 0.0272119995
    556, -0.171387002, 0.0545720011, 0.0254159998
    557, -0.171281993,  0.055385001, 0.0235910006
    558, -0.171176001, 0.0561369993, 0.0217409991
    559, -0.171070993, 0.0568270013, 0.0198669992
    560, -0.170965001, 0.0574549995, 0.0179709997
    561, -0.170858994,  0.058019001, 0.0160549991
    562, -0.170754001, 0.0585200004,     0.014122
    563, -0.170647994,  0.058956001, 0.0121729998
    564,    -0.170543,  0.059328001, 0.0102110002
    565, -0.170436993, 0.0596340001, 0.00823699962
    566, -0.170331001, 0.0598739982, 0.00625400012
    567, -0.170225993, 0.0600490011, 0.00426500011
    568, -0.170120001,  0.060157001, 0.00227000006
    569, -0.170013994, 0.0601989999, 0.000273999991
    570,    -0.169909, 0.0601750016, -0.00172299996
    571, -0.169802994, 0.0600849986, -0.00371899991
    572,    -0.169698,     0.059928, -0.00571000017
    573, -0.169591993, 0.0597059987, -0.00769399991
    574, -0.169486001, 0.0594180003, -0.00967099983
    575, -0.169380993, 0.0590649992, -0.0116370004
    576, -0.169275001, 0.0586460009, -0.0135890003
    577, -0.169170007, 0.0581629984, -0.0155269997
    578,    -0.169064, 0.0576159991, -0.0174480006
    579, -0.168957993, 0.0570049994, -0.0193499997
    580,    -0.168853, 0.0563319996, -0.0212299991
    581, -0.168746993, 0.0555969998, -0.0230870005
    582, -0.168641999,       0.0548, -0.0249189995
    583, -0.168536007, 0.0539439991, -0.0267229993
    584, -0.168430001, 0.0530279987, -0.0284969993
    585, -0.168325007, 0.0520530008, -0.0302409995
    586,    -0.168219, 0.0510209985, -0.0319509991
    587, -0.168114007, 0.0499330014, -0.0336260013
    588,    -0.168008, 0.0487900004, -0.0352629982
    589, -0.167901993, 0.0475939997, -0.0368620008
    590, -0.167796999, 0.0463449992, -0.0384210013
    591, -0.167691007, 0.0450449996, -0.0399370007
    592,    -0.167585, 0.0436949991, -0.0414099991
    593, -0.167480007, 0.0422980003, -0.0428359993
    594,    -0.167374, 0.0408530012, -0.0442159995
    595, -0.167269006, 0.0393639989, -0.045545999
    596,    -0.167163, 0.0378319994, -0.0468269996
    597, -0.167056993, 0.0362580009, -0.048055999
    598, -0.166951999, 0.0346440002, -0.0492330007
    599, -0.166846007, 0.0329909995, -0.0503549986
    600, -0.166740999, 0.0313029997, -0.0514210016
    601, -0.166635007, 0.0295800008, -0.0524309985
    602,    -0.166529, 0.0278239995, -0.0533839986
    603, -0.166424006, 0.0260380004, -0.0542780012
    604, -0.166317999, 0.0242229998, -0.0551109985
    605, -0.166213006, 0.0223820005, -0.0558839999
    606, -0.166106999, 0.0205160007, -0.0565959997
    607, -0.166001007, 0.0186269991, -0.0572459996
    608, -0.165895998, 0.0167180002, -0.0578319989
    609, -0.165790007, 0.0147900004, -0.0583549999
    610, -0.165684998, 0.0128459996, -0.0588129982
    611, -0.165579006,     0.010888, -0.0592069998
    612, -0.165472999, 0.00891800039, -0.0595359989
    613, -0.165368006, 0.00693899998, -0.0597990006
    614, -0.165261999, 0.00495100021, -0.0599960014
    615, -0.165156007, 0.00295799994, -0.0601270013
    616, -0.165050998, 0.000961999991, -0.0601920001
    617, -0.164945006, -0.00103499996, -0.0601910017
    618, -0.164839998, -0.00303100003, -0.0601239987
    619, -0.164734006, -0.00502400007,     -0.05999
    620, -0.164627999, -0.00701100007, -0.0597900003
    621, -0.164523005, -0.00899100024, -0.0595250018
    622, -0.164416999, -0.0109599996, -0.0591939986
    623, -0.164312005, -0.0129180001, -0.0587980002
    624, -0.164205998, -0.0148609998, -0.0583369993
    625, -0.164100006, -0.0167880002, -0.0578120016
    626, -0.163994998, -0.0186960008, -0.0572229996
    627, -0.163889006, -0.0205840003, -0.0565709993
    628, -0.163783997,     -0.02245, -0.055856999
    629, -0.163678005, -0.0242899992, -0.0550820008
    630, -0.163571998, -0.0261039995, -0.0542460009
    631, -0.163467005, -0.0278890003, -0.0533500016
    632, -0.163360998, -0.0296429992, -0.0523959994
    633, -0.163256004, -0.0313649997, -0.0513829999
    634, -0.163149998, -0.0330520011, -0.0503150001
    635, -0.163044006, -0.0347030014, -0.0491910018
    636, -0.162938997, -0.0363159999, -0.0480130017
    637, -0.162833005, -0.0378880017, -0.0467809997
    638, -0.162726998, -0.0394189991, -0.0454990007
    639, -0.162622005, -0.0409069993, -0.0441659987
    640, -0.162515998, -0.0423500016, -0.0427850001
    641, -0.162411004, -0.0437459983, -0.0413569994
    642, -0.162304997, -0.0450929999, -0.0398829989
    643, -0.162199005, -0.0463909991, -0.038364999
    644, -0.162093997, -0.0476379991, -0.0368050002
    645, -0.161988005, -0.0488330014, -0.0352040008
    646, -0.161882997, -0.0499739982, -0.0335649997
    647, -0.161777005, -0.0510599986, -0.031888999
    648, -0.161670998, -0.0520900004, -0.0301779993
    649, -0.161566004, -0.0530619994, -0.0284330007
    650, -0.161459997, -0.0539759994, -0.0266570002
    651, -0.161355004, -0.0548309982, -0.0248520002
    652, -0.161248997, -0.0556249991, -0.0230199993
    653, -0.161143005, -0.0563579984, -0.0211619996
    654, -0.161037996, -0.0570290014, -0.0192809999
    655, -0.160932004, -0.0576369986, -0.0173780005
    656, -0.160826996, -0.0581820011, -0.0154569997
    657, -0.160721004, -0.058662001,    -0.013518
    658, -0.160614997, -0.0590789989, -0.0115649998
    659, -0.160510004, -0.0594299994, -0.00959900022
    660, -0.160403997, -0.059714999, -0.00762199983
    661, -0.160299003, -0.0599349998, -0.00563699985
    662, -0.160192996, -0.0600889996, -0.00364600006
    663, -0.160087004, -0.0601769984,    -0.001651
    664, -0.159981996, -0.0601989999, 0.000345999986
    665, -0.159876004, -0.0601539984, 0.00234299991
    666, -0.159769997, -0.0600429997, 0.00433700019
    667, -0.159665003,    -0.059866, 0.00632699998
    668, -0.159558997, -0.0596240014, 0.00830900017
    669, -0.159454003, -0.0593149997, 0.0102819996
    670, -0.159347996, -0.0589420013, 0.0122440001
    671, -0.159242004, -0.0585029982, 0.0141930003
    672, -0.159136996, -0.0579999983, 0.0161259994
    673, -0.159031004, -0.0574330017, 0.0180409998
    674, -0.158925995, -0.0568029992, 0.0199360009
    675, -0.158820003, -0.0561110005, 0.0218090005
    676, -0.158713996, -0.0553559996, 0.0236579999
    677, -0.158609003, -0.0545409992, 0.0254820008
    678, -0.158502996, -0.0536659993, 0.0272770002
    679, -0.158398002, -0.0527309999,     0.029042
    680, -0.158291996, -0.0517389998, 0.0307749994
    681, -0.158186004, -0.050689999, 0.0324749984
    682, -0.158080995, -0.0495840013, 0.0341380015
    683, -0.157975003, -0.0484250002, 0.0357640013
    684, -0.157869995, -0.0472120009, 0.0373510011
    685, -0.157764003, -0.0459470004, 0.0388959982
    686, -0.157657996, -0.0446310006,     0.040399
    687, -0.157553002, -0.0432670005, 0.0418570004
    688, -0.157446995, -0.0418540016, 0.0432690009
    689, -0.157341003, -0.0403960012, 0.0446339995
    690, -0.157235995, -0.0388929993, 0.0459499992
    691, -0.157130003, -0.0373470001, 0.0472140014
    692, -0.157024994, -0.0357609987, 0.0484270006
    693, -0.156919003, -0.0341349989, 0.0495870002
    694, -0.156812996, -0.0324710011, 0.0506919995
    695, -0.156708002, -0.0307710003, 0.0517410003
    696, -0.156601995, -0.0290380009, 0.0527330004
    697, -0.156497002, -0.0272729993, 0.0536679998
    698, -0.156390995, -0.0254779998, 0.0545429997
    699, -0.156285003, -0.0236540008, 0.0553580001
    700, -0.156179994, -0.0218049996, 0.0561119989
    701, -0.156074002,    -0.019932, 0.0568040013
    702, -0.155968994, -0.0180360004, 0.0574340001
    703, -0.155863002, -0.0161210001, 0.0580010004
    704, -0.155756995,    -0.014188, 0.0585040003
    705, -0.155652002, -0.0122400001, 0.0589420013
    706, -0.155545995, -0.0102779996, 0.0593160018
    707, -0.155441001, -0.00830500014, 0.0596240014
    708, -0.155334994, -0.00632200018, 0.0598669983
    709, -0.155229002, -0.00433300016, 0.0600440018
    710, -0.155123994, -0.00233900012, 0.0601539984
    711, -0.155018002, -0.000342000014, 0.0601989999
    712, -0.154911995, 0.00165500003, 0.0601769984
    713, -0.154807001, 0.00365000009, 0.0600889996
    714, -0.154700994, 0.00564099988, 0.0599349998
    715, -0.154596001, 0.0076270001,  0.059714999
    716, -0.154489994, 0.00960300025, 0.0594290011
    717, -0.154384002, 0.0115689998, 0.0590780005
    718, -0.154278994, 0.0135230003, 0.0586609989
    719, -0.154173002, 0.0154609997,  0.058180999
    720, -0.154067993, 0.0173829999, 0.0576360002
    721, -0.153962001, 0.0192850009, 0.0570270009
    722, -0.153855994, 0.0211660005, 0.0563560016
    723, -0.153751001, 0.0230240002, 0.0556229986
    724, -0.153644994, 0.0248559993, 0.0548290014
    725,     -0.15354, 0.0266609993, 0.0539739989
    726, -0.153433993, 0.0284369998, 0.0530599989
    727, -0.153328001,     0.030181, 0.0520870015
    728, -0.153222993,     0.031893, 0.0510580018
    729, -0.153117001, 0.0335690007, 0.0499720015
    730, -0.153011993, 0.0352080017, 0.0488310009
    731, -0.152906001,  0.036807999, 0.0476359986
    732, -0.152799994, 0.0383680016, 0.0463889986
    733,    -0.152695, 0.0398860015, 0.0450900011
    734, -0.152588993, 0.0413599983, 0.0437420011
    735, -0.152483001, 0.0427879989, 0.0423460007
    736, -0.152377993, 0.0441690013, 0.0409040004
    737, -0.152272001, 0.0455019996, 0.0394160002
    738, -0.152167007, 0.0467839986, 0.0378849991
    739,    -0.152061, 0.0480149984,  0.036311999
    740, -0.151954994, 0.0491929986, 0.0346999988
    741,     -0.15185, 0.0503170006, 0.0330489986
    742, -0.151743993, 0.0513859987, 0.0313609987
    743,    -0.151639, 0.0523979999, 0.0296390001
    744, -0.151532993, 0.0533519983, 0.0278849993
    745, -0.151427001, 0.0542480014, 0.0261000004
    746, -0.151322007, 0.0550840013, 0.0242860001
    747,    -0.151216, 0.0558589995, 0.0224450007
    748, -0.151111007, 0.0565729998, 0.0205799993
    749,    -0.151005, 0.0572240017, 0.0186919998
    750, -0.150898993, 0.0578129999, 0.0167839993
    751, -0.150793999, 0.0583380014, 0.0148569997
    752, -0.150687993, 0.0587989986, 0.0129129998
    753, -0.150582999, 0.0591950007, 0.0109559996
    754, -0.150477007, 0.0595250018, 0.00898599997
    755,    -0.150371, 0.0597900003, 0.00700700004
    756, -0.150266007,      0.05999, 0.0050189998
    757,     -0.15016, 0.0601239987,     0.003027
    758, -0.150053993, 0.0601910017, 0.00103100005
    759, -0.149932995, 0.0601929985, -0.000966000021
    760, -0.149696007, 0.0601309985, -0.00295099989
    761, -0.149326995, 0.0600069985, -0.00491200015
    762, -0.148827001, 0.0598220006, -0.00683999993
    763, -0.148201004, 0.0595769994, -0.00872300006
    764,     -0.14745, 0.0592719987, -0.0105520003
    765, -0.146578997,  0.058908999, -0.0123159997
    766, -0.145593002, 0.0584920011, -0.0140049998
    767, -0.144497007, 0.0580210015, -0.0156100001
    768,    -0.143298, 0.0574989989, -0.0171230007
    769, -0.142001003, 0.0569300018, -0.0185349993
    770, -0.140614003, 0.0563150011,    -0.019839
    771, -0.139145002, 0.0556599982, -0.0210270006
    772, -0.137601003, 0.0549670011, -0.0220929999
    773, -0.135992005, 0.0542399995,    -0.023031
    774, -0.134323999, 0.0534829982, -0.0238359999
    775, -0.132608995, 0.0527000017, -0.0245040003
    776, -0.130854994, 0.0518959984, -0.0250300001
    777, -0.129071996, 0.0510750003, -0.0254120007
    778, -0.127269998,  0.050241001, -0.0256479997
    779, -0.125458002, 0.0493980013, -0.0257370006
    780, -0.123646997, 0.0485530011, -0.0256779995
    781, -0.121844999, 0.0477089994,    -0.025471
    782, -0.120065004, 0.0468700007, -0.0251160003
    783, -0.118300997, 0.0460369997,    -0.024673
    784, -0.116538003, 0.0452050008, -0.0242270008
    785, -0.114775002, 0.0443719998, -0.0237809997
    786, -0.113012001, 0.0435400009, -0.0233350005
    787,    -0.111249, 0.0427079983, -0.0228889994
    788, -0.109485999,  0.041875001, -0.0224430002
    789, -0.107722998, 0.0410429984, -0.0219960008
    790, -0.105959997, 0.0402100012, -0.0215499997
    791, -0.104198001, 0.0393779986, -0.0211040005
    792,    -0.102435, 0.0385450013, -0.0206579994
    793, -0.100671999, 0.0377129987, -0.0202120002
    794, -0.0989089981, 0.0368800014, -0.0197659992
    795, -0.097145997, 0.0360479988,     -0.01932
    796, -0.0953830034, 0.0352150016, -0.0188730005
    797, -0.0936200023, 0.0343829989, -0.0184269994
    798, -0.0918570012, 0.0335500017, -0.0179810002
    799, -0.0900940001, 0.0327179991, -0.0175349992
    800, -0.088330999, 0.0318860002,    -0.017089
    801, -0.0865679979, 0.0310529992, -0.0166430008
    802, -0.0848049968, 0.0302210003, -0.0161959995
    803, -0.0830420032, 0.0293879993, -0.0157500003
    804, -0.0812790021, 0.0285560004, -0.0153040001
    805, -0.079516001, 0.0277229995,    -0.014858
    806,    -0.077753, 0.0268910006, -0.0144119998
    807, -0.0759899989, 0.0260579996, -0.0139659997
    808, -0.0742269978, 0.0252260007, -0.0135199996
    809, -0.0724650025, 0.0243929997, -0.0130730001
    810, -0.0707020015, 0.0235610008,    -0.012627
    811, -0.0689390004, 0.0227279998, -0.0121809999
    812, -0.0671759993, 0.0218959991, -0.0117349997
    813, -0.0654129982, 0.0210640002, -0.0112889996
    814, -0.0636499971, 0.0202309992, -0.0108430004
    815, -0.0618869998, 0.0193990003, -0.0103970002
    816, -0.0601239987, 0.0185659993, -0.00994999986
    817, -0.0583610013, 0.0177340005, -0.00950399972
    818, -0.0565980002, 0.0169009995, -0.00905799959
    819, -0.0548349991, 0.0160690006, -0.00861200038
    820, -0.0530720018, 0.0152359996, -0.00816600025
    821, -0.0513090007, 0.0144039998, -0.00772000011
    822, -0.0495459996, 0.0135709997, -0.00727399997
    823, -0.0477829985, 0.0127389999, -0.00682700006
    824, -0.0460200012, 0.0119070001, -0.00638099993
    825, -0.0442570001,     0.011074, -0.00593499979
    826, -0.0424950011, 0.0102420002, -0.00548900012
    827,    -0.040732, 0.00940900017, -0.00504299998
    828, -0.0389680006, 0.00857700035, -0.00459699985
    829, -0.0371919982, 0.00776699977, -0.0041629998
    830, -0.0353940018, 0.00699499995, -0.00374899991
    831, -0.0335749984, 0.00626200018, -0.00335599994
    832, -0.0317369998, 0.00556699978, -0.0029839999
    833, -0.0298800003, 0.00491200015, -0.00263300003
    834, -0.0280060004, 0.00429699989, -0.00230300007
    835, -0.0261160005, 0.00372099993, -0.00199400005
    836, -0.0242100004, 0.00318600005, -0.00170799997
    837, -0.0222900007, 0.00269200001, -0.00144200004
    838,    -0.020358, 0.00223800004, -0.00119900005
    839, -0.0184129998, 0.00182600005, -0.000977999996
    840, -0.0164579991, 0.00145500002, -0.000780000002
    841, -0.0144929998, 0.00112599996, -0.000602999993
    842, -0.0125200003, 0.000837999978, -0.000449000014
    843, -0.0105389999, 0.000592999975, -0.000318000006
    844, -0.00855300017, 0.000390000001, -0.000209000005
    845, -0.0065609999, 0.000230000005, -0.000123000005
    846, -0.00456599984, 0.000111000001, -5.99999985e-05
    847, -0.00256699999, 3.50000009e-05, -1.89999992e-05
    848, -0.000568000018, 1.99999999e-06, -9.99999997e-07
    849, 0.00143199996,           0.,           0.
    850, 0.00343200006,           0.,           0.
    851, 0.00543199992,           0.,           0.
    852, 0.00743199978,           0.,           0.
    853, 0.00943200011,           0.,           0.
    854, 0.0114320004,           0.,           0.
    855, 0.0134319998,           0.,           0.
    856, 0.0154320002,           0.,           0.
    857, 0.0174320005,           0.,           0.
    858, 0.0194320008,           0.,           0.
    859, 0.0214319993,           0.,           0.
    860, 0.0234319996,           0.,           0.
    861, 0.0254319999,           0.,           0.
    862, 0.0274320003,           0.,           0.
    863, 0.0294320006,           0.,           0.
    864, 0.0314319991,           0.,           0.
    865, 0.0334319994,           0.,           0.
    866, 0.0354319997,           0.,           0.
    867,     0.037432,           0.,           0.
    868, 0.0394320004,           0.,           0.
    869, 0.0414320007,           0.,           0.
    870,  0.043432001,           0.,           0.
    871, 0.0454320014,           0.,           0.
    872, 0.0474320017,           0.,           0.
    873, 0.0494319983,           0.,           0.
    874, 0.0514319986,           0.,           0.
    875, 0.0534319989,           0.,           0.
    876, 0.0554319993,           0.,           0.
    877, 0.0574319996,           0.,           0.
    878, 0.0594319999,           0.,           0.
    879, 0.0614320002,           0.,           0.
    880, 0.0634320006,           0.,           0.
    881, 0.0654319972,           0.,           0.
    882, 0.0674320012,           0.,           0.
    883, 0.0694319978,           0.,           0.
    884, 0.0714320019,           0.,           0.
    885, 0.0734319985,           0.,           0.
    886, 0.0754320025,           0.,           0.
    887, 0.0774319991,           0.,           0.
    888, 0.0794320032,           0.,           0.
    889, 0.0814319998,           0.,           0.
    890, 0.0834319964,           0.,           0.
    891, 0.0854320005,           0.,           0.
    892, 0.0874319971,           0.,           0.
    893, 0.0894320011,           0.,           0.
    894, 0.0914319977,           0.,           0.
    895, 0.0934320018,           0.,           0.
    896, 0.0954319984,           0.,           0.
    897, 0.0974320024,           0.,           0.
    898,  0.099431999,           0.,           0.
    899,  0.101432003,           0.,           0.
    900,     0.103432,           0.,           0.
    901,  0.105431996,           0.,           0.
    902,     0.107432,           0.,           0.
    903,  0.109431997,           0.,           0.
    904,  0.111432001,           0.,           0.
    905,  0.113431998,           0.,           0.
    906,  0.115432002,           0.,           0.
    907,  0.117431998,           0.,           0.
    908,  0.119432002,           0.,           0.
    909,  0.121431999,           0.,           0.
    910,  0.123432003,           0.,           0.
    911,     0.125432,           0.,           0.
    912,  0.127432004,           0.,           0.
    913,  0.129431993,           0.,           0.
    914,  0.131431997,           0.,           0.
    915,  0.133432001,           0.,           0.
    916,  0.135432005,           0.,           0.
    917,  0.137431994,           0.,           0.
    918,  0.139431998,           0.,           0.
    919,  0.141432002,           0.,           0.
    920,  0.143432006,           0.,           0.
    921,  0.145431995,           0.,           0.
    922,  0.147431999,           0.,           0.
    923,  0.149432003,           0.,           0.
    924,  0.151431993,           0.,           0.
    925,  0.153431997,           0.,           0.
    926,  0.155432001,           0.,           0.
    927,  0.157432005,           0.,           0.
    928,  0.159431994,           0.,           0.
    929,  0.161431998,           0.,           0.
    930,  0.163432002,           0.,           0.
    931,  0.165432006,           0.,           0.
    932,  0.167431995,           0.,           0.
    933,  0.169431999,           0.,           0.
    934,  0.171432003,           0.,           0.
    935,  0.173432007,           0.,           0.
    936,  0.175431997,           0.,           0.
    937,  0.177432001,           0.,           0.
    938,  0.179432005,           0.,           0.
    939,  0.181431994,           0.,           0.
    940,  0.183431998,           0.,           0.
    941,  0.185432002,           0.,           0.
    942,  0.187432006,           0.,           0.
    943,  0.189431995,           0.,           0.
    944,  0.191431999,           0.,           0.
    945,  0.193432003,           0.,           0.
    946,  0.195432007,           0.,           0.
    947,  0.197431996,           0.,           0.
    948,  0.199432001,           0.,           0.
    949,  0.201432005,           0.,           0.
    950,  0.203431994,           0.,           0.
    951,  0.205431998,           0.,           0.
    952,  0.207432002,           0.,           0.
    953,  0.209432006,           0.,           0.
    954,  0.211431995,           0.,           0.
    955,  0.213431999,           0.,           0.
    956,  0.215432003,           0.,           0.
    957,  0.217432007,           0.,           0.
    958,  0.219431996,           0.,           0.
    959,     0.221432,           0.,           0.
    960,  0.223432004,           0.,           0.
    961,  0.225431994,           0.,           0.
    962,  0.227431998,           0.,           0.
    963,  0.229432002,           0.,           0.
    964,  0.231432006,           0.,           0.
    965,  0.233431995,           0.,           0.
    966,  0.235431999,           0.,           0.
    967,  0.237432003,           0.,           0.
    968,  0.239432007,           0.,           0.
    969,  0.241431996,           0.,           0.
    970,     0.243432,           0.,           0.
    971,  0.245432004,           0.,           0.
    972,  0.247431993,           0.,           0.
    973,  0.249431998,           0.,           0.
    974,  0.251432002,           0.,           0.
    975,  0.253432006,           0.,           0.
    976,   0.25543201,           0.,           0.
    977,  0.257432014,           0.,           0.
    978,  0.259431988,           0.,           0.
    979,  0.261431992,           0.,           0.
    980,  0.263431996,           0.,           0.
    981,     0.265432,           0.,           0.
    982,  0.267432004,           0.,           0.
    983,  0.269432008,           0.,           0.
    984,  0.271432012,           0.,           0.
    985,  0.273431987,           0.,           0.
    986,  0.275431991,           0.,           0.
    987,  0.277431995,           0.,           0.
    988,  0.279431999,           0.,           0.
    989,  0.281432003,           0.,           0.
    990,  0.282999992,           0.,           0.
    991, -0.229947001, 0.0601829998, -0.000998000032
    992, -0.229842007, 0.0601169989, -0.00299399998
    993,    -0.229736, 0.0599839985, -0.00498700002
    994, -0.229629993, 0.0597859994, -0.00697400002
    995,    -0.229525, 0.0595219992, -0.00895300042
    996, -0.229418993, 0.0591920018, -0.0109230001
    997, -0.229313999, 0.0587970018, -0.0128800003
    998, -0.229207993, 0.0583380014, -0.0148240002
    999, -0.229102001, 0.0578139983, -0.0167510007
   1000, -0.228997007, 0.0572270006, -0.0186589994
   1001,    -0.228891, 0.0565759987, -0.0205470007
   1002, -0.228786007, 0.0558630005, -0.0224130005
   1003,     -0.22868, 0.0550890006, -0.0242529996
   1004, -0.228573993, 0.0542539991, -0.0260669999
   1005, -0.228468999, 0.0533600003, -0.0278530009
   1006, -0.228363007, 0.0524060018, -0.0296069998
   1007,    -0.228257,  0.051394999, -0.0313300006
   1008, -0.228152007, 0.0503280014, -0.0330169983
   1009,    -0.228046, 0.0492050014, -0.0346690007
   1010, -0.227941006, 0.0480279997, -0.0362819992
   1011,    -0.227835, 0.0467979982, -0.0378549993
   1012, -0.227728993, 0.0455159992, -0.0393860005
   1013, -0.227623999, 0.0441850014, -0.040874999
   1014, -0.227518007, 0.0428050011, -0.0423180014
   1015, -0.227412999, 0.0413770005, -0.0437140018
   1016, -0.227307007, 0.0399039984, -0.0450630002
   1017,    -0.227201, 0.0383879989, -0.0463620014
   1018, -0.227096006, 0.0368289985, -0.0476099998
   1019, -0.226989999, 0.0352290012, -0.0488049984
   1020, -0.226885006, 0.0335909985, -0.049947001
   1021, -0.226778999, 0.0319150016, -0.0510339998
   1022, -0.226673007, 0.0302050002, -0.0520640016
   1023, -0.226567999,     0.028461, -0.0530380011
   1024, -0.226462007, 0.0266859997, -0.0539529994
   1025, -0.226356998, 0.0248819999, -0.0548079982
   1026, -0.226251006, 0.0230500009, -0.0556030013
   1027, -0.226144999, 0.0211929996, -0.0563369989
   1028, -0.226040006, 0.0193130001, -0.0570090003
   1029, -0.225933999, 0.0174109992, -0.0576190017
   1030, -0.225828007, 0.0154900001, -0.0581640005
   1031, -0.225722998, 0.0135519998, -0.0586460009
   1032, -0.225617006, 0.0115989996, -0.0590629987
   1033, -0.225511998, 0.00963400025, -0.0594159998
   1034, -0.225406006, 0.00765699986, -0.0597029999
   1035, -0.225299999, 0.00567300012, -0.059923999
   1036, -0.225195006, 0.0036820001, -0.0600790009
   1037, -0.225088999, 0.00168700004, -0.0601680018
   1038, -0.224984005, -0.000310000003, -0.0601910017
   1039, -0.224877998, -0.0023060001, -0.0601469986
   1040, -0.224772006, -0.00430000015, -0.0600380003
   1041, -0.224666998, -0.00628999993, -0.059861999
   1042, -0.224561006, -0.00827199966, -0.0596209988
   1043, -0.224455997,    -0.010245, -0.0593129992
   1044, -0.224350005, -0.0122069996, -0.0589409992
   1045, -0.224243999, -0.0141550004, -0.0585029982
   1046, -0.224139005, -0.0160879996, -0.0580019988
   1047, -0.224032998, -0.0180029999, -0.0574360006
   1048, -0.223928005, -0.0198989995, -0.0568070002
   1049, -0.223821998, -0.0217719991, -0.0561159998
   1050, -0.223716006, -0.0236220006, -0.0553629994
   1051, -0.223610997, -0.0254449993, -0.0545490012
   1052, -0.223505005, -0.0272410009, -0.0536749996
   1053, -0.223398998, -0.0290060006, -0.0527420007
   1054, -0.223294005, -0.0307400003, -0.0517500006
   1055, -0.223187998, -0.0324390009, -0.0507019982
   1056, -0.223083004, -0.0341029987, -0.0495980009
   1057, -0.222976997, -0.0357300006, -0.0484399982
   1058, -0.222871006, -0.0373170003, -0.0472280011
   1059, -0.222765997, -0.0388629995, -0.0459639989
   1060, -0.222660005, -0.0403660014, -0.0446490012
   1061, -0.222554997, -0.0418250002, -0.0432859994
   1062, -0.222449005, -0.0432379991, -0.041875001
   1063, -0.222342998, -0.0446039997, -0.0404170007
   1064, -0.222238004, -0.0459199995, -0.0389150009
   1065, -0.222131997,    -0.047185, -0.0373709984
   1066, -0.222027004, -0.0483990014, -0.0357850008
   1067, -0.221920997, -0.0495590009, -0.0341599993
   1068, -0.221815005, -0.0506649986, -0.0324969999
   1069, -0.221709996, -0.0517150015, -0.0307989996
   1070, -0.221604005, -0.0527089983, -0.0290660001
   1071, -0.221498996, -0.0536440015, -0.0273020007
   1072, -0.221393004, -0.0545199998, -0.0255069993
   1073, -0.221286997, -0.0553359985, -0.0236850008
   1074, -0.221182004, -0.0560909994, -0.0218359996
   1075, -0.221075997, -0.0567849986,    -0.019963
   1076, -0.220970005, -0.0574159995, -0.0180690009
   1077, -0.220864996, -0.0579829998, -0.0161540005
   1078, -0.220759004, -0.0584870018, -0.0142219998
   1079, -0.220653996, -0.0589269996, -0.0122739999
   1080, -0.220548004, -0.0593019985, -0.0103129996
   1081, -0.220441997, -0.0596110001, -0.00834000017
   1082, -0.220337003, -0.0598549992, -0.00635799998
   1083, -0.220230997, -0.060033001, -0.00436899997
   1084, -0.220126003, -0.0601450019, -0.00237499992
   1085, -0.220019996, -0.0601899996, -0.000377999997
   1086, -0.219914004, -0.0601699986, 0.00161799998
   1087, -0.219808996, -0.0600830019, 0.00361300004
   1088, -0.219703004, -0.0599300005, 0.00560399983
   1089, -0.219597995, -0.0597110018, 0.00758899981
   1090, -0.219492003, -0.0594270006, 0.00956599973
   1091, -0.219385996, -0.0590769984, 0.0115320003
   1092, -0.219281003, -0.058662001, 0.0134849995
   1093, -0.219174996, -0.0581820011, 0.0154240001
   1094, -0.219070002, -0.0576380007, 0.0173450001
   1095, -0.218963996, -0.0570309982, 0.0192479994
   1096, -0.218858004, -0.056361001, 0.0211289991
   1097, -0.218752995, -0.0556290001, 0.0229870006
   1098, -0.218647003, -0.0548360012, 0.0248199999
   1099, -0.218540996, -0.0539829992, 0.0266249999
   1100, -0.218436003, -0.0530700013, 0.0284010004
   1101, -0.218329996, -0.0520990007, 0.0301460009
   1102, -0.218225002, -0.051070001, 0.0318569988
   1103, -0.218118995, -0.049984999, 0.0335340016
   1104, -0.218013003, -0.0488450006, 0.0351729989
   1105, -0.217907995, -0.0476510003, 0.0367739983
   1106, -0.217802003, -0.0464049987, 0.0383349992
   1107, -0.217696995, -0.0451080017, 0.0398529992
   1108, -0.217591003,    -0.043761, 0.0413280018
   1109, -0.217484996, -0.0423660018, 0.0427559987
   1110, -0.217380002, -0.0409249999, 0.0441379994
   1111, -0.217273995, -0.0394380018, 0.0454710014
   1112, -0.217169002, -0.037907999, 0.0467550009
   1113, -0.217062995, -0.036336001, 0.0479869992
   1114, -0.216957003, -0.0347249992, 0.0491649993
   1115, -0.216851994, -0.033073999, 0.0502899997
   1116, -0.216746002, -0.0313879997, 0.0513599999
   1117, -0.216640994, -0.0296669994, 0.0523729995
   1118, -0.216535002, -0.0279140007,     0.053328
   1119, -0.216428995, -0.0261289999, 0.0542250015
   1120, -0.216324002, -0.0243159998, 0.0550610013
   1121, -0.216217995, -0.0224760007,     0.055838
   1122, -0.216113001, -0.0206119996, 0.0565520003
   1123, -0.216006994, -0.0187240001,  0.057204999
   1124, -0.215901002, -0.0168159995, 0.0577949993
   1125, -0.215795994, -0.0148900002, 0.0583209991
   1126, -0.215690002, -0.0129469996, 0.0587829985
   1127, -0.215583995, -0.0109900003, 0.0591799989
   1128, -0.215479001, -0.00902100001, 0.0595120005
   1129, -0.215372995, -0.00704200007, 0.0597780012
   1130, -0.215268001, -0.00505500007, 0.0599789992
   1131, -0.215161994, -0.00306300004,     0.060114
   1132, -0.215056002, -0.00106699998, 0.0601820014
   1133, -0.214950994, 0.00092999998, 0.0601839982
   1134, -0.214845002, 0.00292599993, 0.0601200014
   1135, -0.214739993, 0.00491899997,      0.05999
   1136, -0.214634001, 0.00690599997, 0.0597940013
   1137, -0.214527994, 0.00888600014, 0.0595320016
   1138, -0.214423001, 0.0108549995, 0.0592049994
   1139, -0.214316994,     0.012813, 0.0588119999
   1140,    -0.214212, 0.0147569999, 0.0583549999
   1141, -0.214105994, 0.0166849997,  0.057833001
   1142, -0.214000002, 0.0185940005, 0.0572480001
   1143, -0.213894993, 0.0204830002, 0.0565989986
   1144, -0.213789001,     0.022349, 0.0558889993
   1145, -0.213683993, 0.0241909996, 0.0551169999
   1146, -0.213578001, 0.0260060001, 0.0542839989
   1147, -0.213471994, 0.0277919993, 0.0533909984
   1148,    -0.213367, 0.0295480005, 0.0524399988
   1149, -0.213260993, 0.0312709995, 0.0514310002
   1150, -0.213155001, 0.0329600014,  0.050365001
   1151, -0.213049993, 0.0346129984, 0.0492440015
   1152, -0.212944001,  0.036226999, 0.0480690002
   1153, -0.212839007, 0.0378019996, 0.0468409993
   1154, -0.212733001, 0.0393350013, 0.0455610007
   1155, -0.212626994, 0.0408239998, 0.0442310013
   1156,    -0.212522, 0.0422689989, 0.0428530015
   1157, -0.212415993, 0.0436669998, 0.0414270014
   1158,    -0.212311, 0.0450170003, 0.0399559997
   1159, -0.212204993, 0.0463179983, 0.0384400003
   1160, -0.212099001, 0.0475680009, 0.0368830003
   1161, -0.211994007,     0.048765, 0.0352849998
   1162,    -0.211888, 0.0499089994, 0.0336479992
   1163, -0.211783007, 0.0509970002, 0.0319730006
   1164,    -0.211677, 0.0520300008, 0.0302639995
   1165, -0.211570993, 0.0530049987, 0.0285219997
   1166, -0.211465999, 0.0539220013, 0.0267479997
   1167, -0.211359993,  0.054779999, 0.0249439999
   1168, -0.211254999, 0.0555769987, 0.0231129993
   1169, -0.211149007, 0.0563130006,     0.021257
   1170,    -0.211043, 0.0569869988, 0.0193770006
   1171, -0.210938007, 0.0575990006, 0.0174759999
   1172,    -0.210832, 0.0581469983, 0.0155560002
   1173, -0.210725993, 0.0586309992, 0.0136190001
   1174, -0.210620999, 0.0590500012, 0.0116659999
   1175, -0.210515007,  0.059404999, 0.0097009996
   1176, -0.210409999, 0.0596939996, 0.00772499992
   1177, -0.210304007, 0.0599169992, 0.00574100018
   1178,    -0.210198, 0.0600749999, 0.00374999992
   1179, -0.210093006, 0.0601660013, 0.00175499998
   1180,    -0.209987, 0.0601910017, -0.000241999995
   1181, -0.209882006, 0.0601500012, -0.00223800004
   1182, -0.209775999, 0.0600429997, -0.00423200009
   1183, -0.209670007, 0.0598689988, -0.00622100011
   1184, -0.209564999, 0.0596299991, -0.00820400007
   1185, -0.209459007, 0.0593249984, -0.0101779997
   1186, -0.209353998, 0.0589549989, -0.0121400002
   1187, -0.209248006, 0.0585189983, -0.0140890004
   1188, -0.209141999, 0.0580199994, -0.0160220005
   1189, -0.209037006, 0.0574560016, -0.0179379992
   1190, -0.208930999, 0.0568300001, -0.0198340006
   1191, -0.208826005, 0.0561410002, -0.0217080005
   1192, -0.208719999, 0.0553900003, -0.0235590003
   1193, -0.208614007, 0.0545779988, -0.0253829993
   1194, -0.208508998, 0.0537060015, -0.0271799993
   1195, -0.208403006, 0.0527740009, -0.0289459992
   1196, -0.208296999, 0.0517849997, -0.0306809992
   1197, -0.208192006, 0.0507390015, -0.0323820002
   1198, -0.208085999,  0.049637001, -0.0340470001
   1199, -0.207981005, 0.0484800003, -0.0356750004
   1200, -0.207874998,      0.04727, -0.0372629985
   1201, -0.207769006, 0.0460079983, -0.0388109982
   1202, -0.207663998, 0.0446950011, -0.0403160006
   1203, -0.207558006, 0.0433330014, -0.0417760015
   1204, -0.207452998, 0.0419239998, -0.0431910008
   1205, -0.207347006, 0.0404679999, -0.0445570014
   1206, -0.207240999, 0.0389680006, -0.0458750017
   1207, -0.207136005, 0.0374240018, -0.0471430011
   1208, -0.207029998,  0.035840001, -0.0483580008
   1209, -0.206925005, 0.0342160016, -0.0495200008
   1210, -0.206818998,  0.032554999, -0.050627999
   1211, -0.206713006, 0.0308570005, -0.0516799986
   1212, -0.206607997, 0.0291259997, -0.0526750013
   1213, -0.206502005, 0.0273630004, -0.0536129996
   1214, -0.206396997, 0.0255689994, -0.0544909984
   1215, -0.206291005, 0.0237479992, -0.0553090014
   1216, -0.206184998, 0.0219000001, -0.056065999
   1217, -0.206080005, 0.0200280007, -0.0567619987
   1218, -0.205973998, 0.0181339998,    -0.057395
   1219, -0.205869004, 0.0162199996, -0.0579649992
   1220, -0.205762997, 0.0142879998, -0.0584710017
   1221, -0.205657005, 0.0123410001, -0.0589129999
   1222, -0.205551997, 0.0103799999, -0.0592899993
   1223, -0.205446005, 0.00840700045, -0.0596010014
   1224, -0.205339998, 0.00642600004, -0.0598479994
   1225, -0.205235004, 0.00443700003, -0.0600280017
   1226, -0.205128998, 0.00244299998, -0.0601419993
   1227, -0.205024004, 0.000446999999, -0.0601899996
   1228, -0.204917997, -0.00155000004, -0.060171999
   1229, -0.204812005, -0.00354499999, -0.0600869991
   1230, -0.204706997, -0.00553599978, -0.0599359982
   1231, -0.204601005, -0.00752100023, -0.0597199984
   1232, -0.204495996, -0.00949800014, -0.0594369993
   1233, -0.204390004,    -0.011465, -0.0590899996
   1234, -0.204283997, -0.0134190004, -0.0586769991
   1235, -0.204179004, -0.0153580001, -0.0581989996
   1236, -0.204072997, -0.0172799993, -0.0576580018
   1237, -0.203968003, -0.0191830005, -0.0570529997
   1238, -0.203861997, -0.0210650004, -0.0563849993
   1239, -0.203756005, -0.0229240004, -0.0556549989
   1240, -0.203650996, -0.0247569997, -0.0548640005
   1241, -0.203545004, -0.0265640002, -0.0540129989
   1242, -0.203439996, -0.0283410009, -0.0531020015
   1243, -0.203334004, -0.0300859995, -0.0521330014
   1244, -0.203227997, -0.0317989998, -0.0511059985
   1245, -0.203123003, -0.0334770009, -0.0500230007
   1246, -0.203016996, -0.0351179987, -0.048884999
   1247, -0.202911004, -0.0367200002, -0.0476929992
   1248, -0.202805996, -0.0382819995, -0.0464489982
   1249, -0.202700004, -0.0398019999, -0.0451529995
   1250, -0.202594995, -0.0412780009, -0.0438079983
   1251, -0.202489004, -0.0427079983, -0.0424150005
   1252, -0.202382997, -0.0440919995, -0.0409750007
   1253, -0.202278003, -0.0454269983, -0.0394899994
   1254, -0.202171996, -0.0467119999, -0.0379609987
   1255, -0.202067003, -0.0479450002, -0.0363910012
   1256, -0.201960996, -0.0491259992, -0.0347799994
   1257, -0.201855004, -0.0502530001, -0.0331320018
   1258, -0.201749995, -0.0513239987, -0.0314459987
   1259, -0.201644003, -0.0523389988, -0.0297270007
   1260, -0.201538995, -0.0532959998, -0.0279740002
   1261, -0.201433003, -0.0541950017, -0.0261909999
   1262, -0.201326996, -0.0550340004, -0.0243790001
   1263, -0.201222003, -0.0558120012, -0.0225399993
   1264, -0.201115996, -0.0565290004,    -0.020676
   1265, -0.201011002, -0.0571839996, -0.0187890008
   1266, -0.200904995, -0.0577760004, -0.0168820005
   1267, -0.200799003, -0.0583040006, -0.0149560003
   1268, -0.200693995, -0.0587680005, -0.0130139999
   1269, -0.200588003, -0.0591670014, -0.0110569997
   1270, -0.200481996, -0.0595009997, -0.00908899959
   1271, -0.200377002, -0.0597699992, -0.00711000012
   1272, -0.200270995, -0.0599730015, -0.00512300013
   1273, -0.200166002, -0.060109999, -0.00313100009
   1274, -0.200059995, -0.0601809993, -0.00113500003
   1275, -0.199954003, -0.0601850003, 0.000861999986
   1276, -0.199848995, -0.0601239987, 0.00285800011
   1277, -0.199743003, -0.0599960014, 0.00485000014
   1278, -0.199637994, -0.0598019995, 0.00683799991
   1279, -0.199532002, -0.0595420003, 0.00881799962
   1280, -0.199425995, -0.0592169985, 0.0107880002
   1281, -0.199321002, -0.0588259995,     0.012747
   1282, -0.199214995,    -0.058371, 0.0146909999
   1283, -0.199110001,    -0.057852, 0.0166190006
   1284, -0.199003994, -0.0572689995, 0.0185289998
   1285, -0.198898003, -0.0566230007, 0.0204189997
   1286, -0.198792994, -0.0559139997, 0.0222859997
   1287, -0.198687002, -0.0551440008, 0.0241279993
   1288, -0.198581994, -0.0543130003, 0.0259440001
   1289, -0.198476002, -0.0534229986, 0.0277309995
   1290, -0.198369995, -0.0524730012, 0.0294879992
   1291, -0.198265001, -0.0514659993, 0.0312130004
   1292, -0.198158994, -0.0504029989, 0.0329030007
   1293, -0.198053002, -0.0492839999, 0.0345569998
   1294, -0.197947994, -0.0481100008, 0.0361719988
   1295, -0.197842002, -0.0468840003, 0.0377480015
   1296, -0.197736993, -0.0456059985, 0.0392829999
   1297, -0.197631001, -0.0442779996, 0.0407739989
   1298, -0.197524995, -0.0429009981, 0.0422200002
   1299, -0.197420001, -0.0414769985, 0.0436200015
   1300, -0.197313994, -0.0400069989, 0.0449719988
   1301, -0.197209001,    -0.038493, 0.0462739989
   1302, -0.197102994, -0.0369369984, 0.0475259982
   1303, -0.196997002, -0.0353399999, 0.0487250015
   1304, -0.196891993, -0.0337040015, 0.0498699993
   1305, -0.196786001, -0.0320309997,  0.050960999
   1306, -0.196680993, -0.0303230006, 0.0519950017
   1307, -0.196575001, -0.0285819992, 0.0529729985
   1308, -0.196468994, -0.0268089995, 0.0538920015
   1309,    -0.196364,    -0.025006, 0.0547510013
   1310, -0.196257994, -0.0231759995, 0.0555509999
   1311,    -0.196153, -0.0213210005, 0.0562889986
   1312, -0.196046993, -0.0194419995, 0.0569650009
   1313, -0.195941001, -0.0175420009, 0.0575789995
   1314, -0.195835993, -0.0156220002, 0.0581290014
   1315, -0.195730001, -0.0136850001, 0.0586149991
   1316, -0.195623994, -0.0117330002, 0.0590369999
   1317,    -0.195519, -0.00976900011, 0.0593939982
   1318, -0.195412993, -0.00779299997, 0.0596849993
   1319,    -0.195308, -0.00580900023, 0.0599110015
   1320, -0.195201993, -0.00381799997, 0.0600700006
   1321, -0.195096001, -0.00182400004, 0.0601640008
   1322, -0.194991007, 0.000172999993, 0.0601910017
   1323, -0.194885001, 0.00216999999, 0.0601520017
   1324, -0.194780007, 0.00416400004, 0.0600470006
   1325,    -0.194674, 0.00615399983, 0.0598759986
   1326, -0.194567993, 0.00813599955, 0.0596389994
   1327,    -0.194463, 0.0101100001, 0.0593359992
   1328, -0.194356993,     0.012073, 0.0589680001
   1329, -0.194251999, 0.0140220001, 0.0585349984
   1330, -0.194146007, 0.0159559995,     0.058038
   1331,     -0.19404, 0.0178730004, 0.0574770011
   1332, -0.193935007, 0.0197700001, 0.0568520017
   1333,    -0.193829, 0.0216450002, 0.0561649986
   1334, -0.193724006, 0.0234960001, 0.0554159991
   1335,    -0.193618, 0.0253209993, 0.0546060018
   1336, -0.193511993, 0.0271189995, 0.0537369996
   1337, -0.193406999, 0.0288859997, 0.0528069995
   1338, -0.193301007, 0.0306219999, 0.0518199988
   1339,    -0.193195, 0.0323240012, 0.0507760011
   1340, -0.193090007, 0.0339910015, 0.0496760011
   1341,    -0.192984, 0.0356200002, 0.0485210009
   1342, -0.192879006, 0.0372099988, 0.0473119989
   1343, -0.192772999, 0.0387590006, 0.0460520014
   1344, -0.192667007, 0.0402650014,  0.044741001
   1345, -0.192561999,  0.041726999, 0.0433810018
   1346, -0.192456007, 0.0431430005, 0.0419729985
   1347, -0.192350999, 0.0445119999, 0.0405189991
   1348, -0.192245007, 0.0458309986, 0.0390199982
   1349,    -0.192139, 0.0471000001, 0.0374779999
   1350, -0.192034006, 0.0483170003, 0.0358950011
   1351, -0.191927999, 0.0494819991, 0.0342720002
   1352, -0.191823006, 0.0505909994, 0.0326119997
   1353, -0.191716999, 0.0516449995, 0.0309159998
   1354, -0.191611007,  0.052641999, 0.0291859992
   1355, -0.191505998, 0.0535809994,     0.027423
   1356, -0.191400006, 0.0544620007, 0.0256309994
   1357, -0.191294998, 0.0552820005, 0.0238099992
   1358, -0.191189006, 0.0560409985, 0.0219630003
   1359, -0.191082999, 0.0567389987, 0.0200919993
   1360, -0.190978006, 0.0573740005, 0.0181990005
   1361, -0.190871999, 0.0579469986, 0.0162860006
   1362, -0.190767005, 0.0584550016, 0.0143550001
   1363, -0.190660998, 0.0588990003, 0.0124080004
   1364, -0.190555006, 0.0592780001, 0.0104470002
   1365, -0.190449998, 0.0595920011, 0.00847500004
   1366, -0.190344006, 0.0598400012, 0.00649400009
   1367, -0.190237999, 0.0600220002, 0.00450500008
   1368, -0.190133005, 0.0601390004, 0.00251200004
   1369, -0.190026999, 0.0601890013, 0.000515000022
   1370, -0.189922005, 0.0601730011, -0.00148199999
   1371, -0.189815998, 0.0600910001, -0.00347699993
   1372, -0.189710006, 0.0599419996, -0.00546800019
   1373, -0.189604998, 0.0597280003, -0.00745399995
   1374, -0.189499006,     0.059448, -0.00943099987
   1375, -0.189393997, 0.0591030009, -0.0113979997
   1376, -0.189288005, 0.0586920008, -0.0133520002
   1377, -0.189181998, 0.0582170002,    -0.015292
   1378, -0.189077005, 0.0576779991, -0.0172140002
   1379, -0.188970998, 0.0570750013, -0.0191179998
   1380, -0.188866004, 0.0564090014,    -0.021001
   1381, -0.188759997, 0.0556810014, -0.0228599999
   1382, -0.188654006, 0.0548919998, -0.0246949997
   1383, -0.188548997, 0.0540429987, -0.0265020002
   1384, -0.188443005, 0.0531340018, -0.0282799993
   1385, -0.188337997, 0.0521669984, -0.0300270002
   1386, -0.188232005, 0.0511419997, -0.0317410007
   1387, -0.188125998, 0.0500609986, -0.0334200002
   1388, -0.188021004, 0.0489250012, -0.0350620002
   1389, -0.187914997, 0.0477349982, -0.0366659984
   1390, -0.187809005, 0.0464919992, -0.0382289998
   1391, -0.187703997, 0.0451989993, -0.0397510007
   1392, -0.187598005, 0.0438550003, -0.0412280001
   1393, -0.187492996, 0.0424630009, -0.0426600017
   1394, -0.187387004, 0.0410250016, -0.0440450013
   1395, -0.187280998, 0.0395409986, -0.0453820005
   1396, -0.187176004, 0.0380139984, -0.0466689989
   1397, -0.187069997, 0.0364449993, -0.0479039997
   1398, -0.186965004, 0.0348360017, -0.0490860008
   1399, -0.186858997, 0.0331889987, -0.0502149984
   1400, -0.186753005, 0.0315049998, -0.0512880012
   1401, -0.186647996,     0.029786, -0.0523050018
   1402, -0.186542004,     0.028035, -0.0532639995
   1403, -0.186436996, 0.0262519997, -0.0541649982
   1404, -0.186331004, 0.0244410001, -0.0550060011
   1405, -0.186224997, 0.0226029996, -0.0557859987
   1406, -0.186120003, 0.0207400005, -0.0565060005
   1407, -0.186013997, 0.0188539997, -0.0571620017
   1408, -0.185909003, 0.0169479996, -0.0577559993
   1409, -0.185802996, 0.0150220003, -0.0582869984
   1410, -0.185697004, 0.0130810002, -0.0587529987
   1411, -0.185591996,     0.011124, -0.0591549985
   1412, -0.185486004, 0.00915599987, -0.0594910011
   1413, -0.185379997, 0.00717800017, -0.059762001
   1414, -0.185275003, 0.00519100018,    -0.059967
   1415, -0.185168996, 0.00319899991, -0.0601070002
   1416, -0.185064003, 0.00120399997, -0.0601789989
   1417, -0.184957996, -0.000792999985, -0.0601859987
   1418, -0.184852004, -0.00278900005, -0.0601270013
   1419, -0.184746996, -0.00478200009, -0.0600010008
   1420, -0.184641004, -0.00676999986, -0.0598100014
   1421, -0.184535995, -0.00875000004, -0.059551999
   1422, -0.184430003, -0.0107209999, -0.0592290014
   1423, -0.184323996, -0.0126799997, -0.0588410012
   1424, -0.184219003, -0.0146249998, -0.0583879985
   1425, -0.184112996, -0.0165529996, -0.057870999
   1426, -0.184008002, -0.0184640009, -0.057289999
   1427, -0.183901995, -0.0203540009, -0.0566460006
   1428, -0.183796003, -0.0222219992, -0.0559390001
   1429, -0.183690995, -0.0240649991, -0.0551710017
   1430, -0.183585003, -0.0258820001, -0.0543430001
   1431, -0.183479995,    -0.027671, -0.0534540005
   1432, -0.183374003, -0.0294289999, -0.0525069982
   1433, -0.183267996, -0.0311539993, -0.0515020005
   1434, -0.183163002, -0.0328450017, -0.0504399985
   1435, -0.183056995, -0.0345010012,    -0.049323
   1436, -0.182951003, -0.0361180007, -0.0481510013
   1437, -0.182845995, -0.0376950018, -0.0469270013
   1438, -0.182740003, -0.0392309986, -0.0456500016
   1439, -0.182634994, -0.0407240018, -0.0443239994
   1440, -0.182529002, -0.0421719998, -0.0429489985
   1441, -0.182422996, -0.0435729995, -0.0415260009
   1442, -0.182318002, -0.044927001, -0.0400579982
   1443, -0.182211995, -0.0462310016, -0.0385450013
   1444, -0.182107002, -0.0474839993, -0.0369910002
   1445, -0.182000995, -0.0486849993, -0.0353950001
   1446, -0.181895003, -0.0498320013, -0.0337609984
   1447, -0.181789994, -0.0509250015, -0.0320889987
   1448, -0.181684002, -0.051961001, -0.0303819999
   1449, -0.181578994, -0.0529399998, -0.0286420006
   1450, -0.181473002, -0.0538609996, -0.0268699992
   1451, -0.181366995, -0.0547229983, -0.0250690002
   1452, -0.181262001, -0.055523999,     -0.02324
   1453, -0.181155995, -0.0562650003, -0.0213849992
   1454, -0.181051001, -0.0569429994, -0.0195070002
   1455, -0.180944994, -0.0575589985, -0.0176069997
   1456, -0.180839002, -0.0581110008, -0.0156880002
   1457, -0.180733994, -0.058600001, -0.0137520004
   1458, -0.180628002, -0.0590239987, -0.0118000004
   1459, -0.180521995, -0.0593830012, -0.00983600039
   1460, -0.180417001, -0.059675999, -0.00786099955
   1461, -0.180310994, -0.0599040017, -0.00587699981
   1462, -0.180206001, -0.0600659996, -0.00388600002
   1463, -0.180099994, -0.0601620004, -0.00189199997
   1464, -0.179994002, -0.0601920001, 0.000104999999
   1465, -0.179888994, -0.0601550005, 0.00210099993
   1466, -0.179783002,    -0.060052, 0.00409599999
   1467, -0.179677993, -0.0598829985, 0.00608599978
   1468, -0.179572001, -0.0596479997, 0.00806900021
   1469, -0.179465994, -0.0593479984, 0.0100429999
   1470, -0.179361001, -0.0589819998, 0.0120059997
   1471, -0.179254994, -0.0585509986, 0.0139560001
   1472,     -0.17915, -0.0580560006, 0.0158900004
   1473, -0.179043993, -0.0574969985, 0.0178079996
   1474, -0.178938001, -0.0568750016, 0.0197049994
   1475, -0.178832993, -0.056189999, 0.0215809997
   1476, -0.178727001,    -0.055443, 0.0234329998
   1477, -0.178622007, -0.0546349995, 0.0252589993
   1478, -0.178516001, -0.0537669994, 0.0270579997
   1479, -0.178409994, -0.0528399982, 0.0288260002
   1480,    -0.178305, -0.0518550016, 0.0305630006
   1481, -0.178198993, -0.0508119985, 0.0322659984
   1482,    -0.178094, -0.049713999, 0.0339340009
   1483, -0.177987993, -0.0485609993,     0.035565
   1484, -0.177882001, -0.0473549999, 0.0371560007
   1485, -0.177777007, -0.0460960008, 0.0387060009
   1486,    -0.177671, -0.0447870009, 0.0402139984
   1487, -0.177564994, -0.0434280001, 0.0416780002
   1488,     -0.17746, -0.042022001, 0.0430950001
   1489, -0.177353993, -0.0405689999, 0.0444650017
   1490, -0.177248999, -0.0390719995, 0.0457869992
   1491, -0.177142993, -0.0375309996, 0.0470580012
   1492, -0.177037001, -0.0359500013, 0.0482770018
   1493, -0.176932007, -0.0343290009, 0.0494429991
   1494,    -0.176826, -0.0326690003, 0.0505539998
   1495, -0.176721007, -0.0309749991, 0.0516100004
   1496,    -0.176615, -0.0292460006, 0.0526090004
   1497, -0.176508993, -0.0274839997, 0.0535500012
   1498, -0.176403999, -0.0256929994, 0.0544329993
   1499, -0.176298007, -0.0238729995, 0.0552549995
   1500, -0.176192999, -0.0220270008, 0.0560160019
   1501, -0.176087007,    -0.020157, 0.0567159988
   1502,    -0.175981, -0.0182639994, 0.0573539995
   1503, -0.175876006, -0.0163519997, 0.0579279996
   1504,     -0.17577, -0.0144210001, 0.0584390014
   1505, -0.175665006, -0.0124749998, 0.0588850006
   1506, -0.175558999, -0.0105140004,  0.059266001
   1507, -0.175453007, -0.00854299963, 0.0595819987
   1508, -0.175347999, -0.00656200014, 0.0598330013
   1509, -0.175242007, -0.00457300013, 0.0600179993
   1510,    -0.175136, -0.00258000009, 0.0601360016
   1511, -0.175031006, -0.000584000023, 0.0601890013
   1512, -0.174924999, 0.00141300005, 0.0601750016
   1513, -0.174820006, 0.00340900011,  0.060095001
   1514, -0.174713999, 0.00540000014, 0.0599489994
   1515, -0.174608007, 0.0073859999, 0.0597370006
   1516, -0.174502999, 0.00936300028, 0.0594590008
   1517, -0.174397007, 0.0113310004, 0.0591150001
   1518, -0.174291998, 0.0132849999, 0.0587069988
   1519, -0.174186006, 0.0152249997, 0.0582339987
   1520, -0.174079999, 0.0171489995, 0.0576970018
   1521, -0.173975006, 0.0190529991, 0.0570960008
   1522, -0.173868999, 0.0209369995, 0.0564329997
   1523, -0.173764005, 0.0227969997, 0.0557070002
   1524, -0.173657998, 0.0246329997, 0.0549210012
   1525, -0.173552006, 0.0264410004, 0.0540729985
   1526, -0.173446998, 0.0282199997, 0.0531659983
   1527, -0.173341006, 0.0299679991, 0.0522009991
   1528, -0.173235998, 0.0316830017, 0.0511780009
   1529, -0.173130006, 0.0333629996, 0.0500990003
   1530, -0.173023999,     0.035007, 0.0489649996
   1531, -0.172919005, 0.0366120003, 0.0477770008
   1532, -0.172812998, 0.0381769985, 0.0465359986
   1533, -0.172707006, 0.0396989994, 0.0452440009
   1534, -0.172601998, 0.0411779992, 0.0439019985
   1535, -0.172496006, 0.0426120013, 0.0425119996
   1536, -0.172390997, 0.0439990014, 0.0410749987
   1537, -0.172285005,  0.045336999,     0.039593
   1538, -0.172178999, 0.0466249995, 0.0380670018
   1539, -0.172074005, 0.0478620008, 0.0364999995
   1540, -0.171967998, 0.0490470007, 0.0348920003
   1541, -0.171863005, 0.0501770005, 0.0332459994
   1542, -0.171756998, 0.0512529984, 0.0315629989
   1543, -0.171651006,  0.052271001, 0.0298449993
   1544, -0.171545997, 0.0532319993, 0.0280949995
   1545, -0.171440005, 0.0541349985, 0.0263139997
   1546, -0.171334997, 0.0549779981, 0.0245030001
   1547, -0.171229005, 0.0557609983, 0.0226659998
   1548, -0.171122998, 0.0564819984, 0.0208039992
   1549, -0.171018004, 0.0571409985, 0.0189190004
   1550, -0.170911998, 0.0577370003, 0.0170130003
   1551, -0.170807004, 0.0582699999, 0.0150889996
   1552, -0.170700997, 0.0587380007, 0.0131470002
   1553, -0.170595005,  0.059142001, 0.0111919995
   1554, -0.170489997, 0.0594809987, 0.00922400039
   1555, -0.170384005, 0.0597539991, 0.00724600023
   1556, -0.170277998, 0.0599609986, 0.00525900023
   1557, -0.170173004, 0.0601029992, 0.00326699996
   1558, -0.170066997, 0.0601780005, 0.00127200002
   1559, -0.169962004, 0.0601870008, -0.000724999991
   1560, -0.169855997, 0.0601300001,    -0.002721
   1561, -0.169750005, 0.0600069985, -0.00471400004
   1562, -0.169644997, 0.0598170012, -0.00670199981
   1563, -0.169539005, 0.0595620014, -0.00868299976
   1564, -0.169433996, 0.0592410006, -0.0106539996
   1565, -0.169328004, 0.0588550009, -0.0126130003
   1566, -0.169221997, 0.0584039986, -0.0145579996
   1567, -0.169117004, 0.0578889996, -0.0164880008
   1568, -0.169010997, 0.0573109984, -0.0183990002
   1569, -0.168906003, 0.0566690005, -0.0202900004
   1570, -0.168799996, 0.0559649989, -0.0221590009
   1571, -0.168694004,  0.055199001, -0.0240030009
   1572, -0.168588996, 0.0543720014, -0.0258210003
   1573, -0.168483004, 0.0534860007, -0.0276100002
   1574, -0.168377995, 0.0525400005, -0.0293690003
   1575, -0.168272004, 0.0515369996, -0.0310960002
   1576, -0.168165997, 0.0504770018, -0.032788001
   1577, -0.168061003, 0.0493620001, -0.0344449989
   1578, -0.167954996, 0.0481919982, -0.0360630006
   1579, -0.167849004, 0.0469690003, -0.0376419984
   1580, -0.167743996, 0.0456949994, -0.039179001
   1581, -0.167638004, 0.0443699993, -0.0406729989
   1582, -0.167532995, 0.0429969989, -0.0421230011
   1583, -0.167427003, 0.0415760018, -0.0435260013
   1584, -0.167320997, 0.0401090011, -0.0448810011
   1585, -0.167216003,  0.038598001, -0.0461869985
   1586, -0.167109996, 0.0370449983, -0.0474420004
   1587, -0.167005002, 0.0354509987, -0.0486450009
   1588, -0.166898996, 0.0338170007, -0.0497939996
   1589, -0.166793004, 0.0321470015, -0.0508879982
   1590, -0.166687995, 0.0304409992, -0.0519259982
   1591, -0.166582003, 0.0287020002, -0.0529079996
   1592, -0.166476995, 0.0269310009, -0.0538309999
   1593, -0.166371003, 0.0251310002, -0.0546940006
   1594, -0.166264996, 0.0233030003, -0.0554980002
   1595, -0.166160002, 0.0214489996, -0.0562399998
   1596, -0.166053995, 0.0195710007, -0.0569210015
   1597, -0.165949002, 0.0176730007, -0.0575390011
   1598, -0.165842995, 0.0157539994, -0.0580930002
   1599, -0.165737003, 0.0138180004, -0.0585840009
   1600, -0.165631995, 0.0118669998, -0.059009999
   1601, -0.165526003, 0.00990299974, -0.0593709983
   1602, -0.165420994, 0.00792900007, -0.0596669987
   1603, -0.165315002, 0.00594499987, -0.0598970018
   1604, -0.165208995, 0.00395500008, -0.0600619987
   1605, -0.165104002, 0.00196000002, -0.0601599999
   1606, -0.164997995, -3.60000013e-05, -0.0601920001
   1607, -0.164892003, -0.00203300011, -0.060157001
   1608, -0.164786994, -0.00402700016, -0.0600569993
   1609, -0.164681002, -0.00601699995, -0.0598899983
   1610, -0.164575994, -0.00800099969, -0.0596579984
   1611, -0.164470002, -0.00997500028, -0.0593589991
   1612, -0.164363995, -0.0119390003, -0.0589959994
   1613, -0.164259002, -0.0138889998, -0.0585669987
   1614, -0.164152995, -0.0158239994, -0.0580740012
   1615, -0.164048001, -0.0177420005, -0.0575169995
   1616, -0.163941994, -0.0196400005, -0.0568969995
   1617, -0.163836002, -0.0215169992, -0.056214001
   1618, -0.163730994, -0.0233699996, -0.055470001
   1619, -0.163625002, -0.0251969993, -0.0546640009
   1620, -0.163519993, -0.0269959997, -0.0537980013
   1621, -0.163414001, -0.0287660006, -0.0528730005
   1622, -0.163307995, -0.0305039994, -0.0518900007
   1623, -0.163203001, -0.0322090015, -0.0508490019
   1624, -0.163096994, -0.0338779986, -0.0497529991
   1625, -0.162992001, -0.0355090015, -0.0486019999
   1626, -0.162885994, -0.0371019989, -0.0473969989
   1627, -0.162780002, -0.0386539996, -0.0461400002
   1628, -0.162674993, -0.0401629992, -0.0448319986
   1629, -0.162569001, -0.0416279994, -0.0434749983
   1630, -0.162462994, -0.0430480018, -0.0420709997
   1631, -0.162358001, -0.0444190018, -0.0406199992
   1632, -0.162251994, -0.0457420014, -0.0391240008
   1633,    -0.162147, -0.0470150001, -0.0375850014
   1634, -0.162040994, -0.0482360013, -0.0360050015
   1635, -0.161935002, -0.049403999, -0.0343849994
   1636, -0.161829993, -0.0505170003, -0.0327269994
   1637, -0.161724001, -0.0515750013,    -0.031033
   1638, -0.161618993, -0.0525760017, -0.0293049999
   1639, -0.161513001, -0.0535189994, -0.0275449995
   1640, -0.161406994, -0.0544029996, -0.0257549994
   1641,    -0.161302, -0.0552279986, -0.0239359997
   1642, -0.161195993, -0.0559910014, -0.0220909994
   1643,    -0.161091, -0.0566929989, -0.0202210005
   1644, -0.160984993,    -0.057333, -0.0183290001
   1645, -0.160879001, -0.0579090007, -0.0164180007
   1646, -0.160774007, -0.0584219992, -0.0144880004
   1647, -0.160668001, -0.058871001,    -0.012542
   1648, -0.160563007, -0.0592540018,    -0.010582
   1649,    -0.160457, -0.0595729984, -0.00861100014
   1650, -0.160350993, -0.0598249994, -0.00663000019
   1651,    -0.160246, -0.0600120015, -0.00464199996
   1652, -0.160139993, -0.060132999, -0.00264799991
   1653, -0.160034001, -0.0601879992, -0.000652000017
   1654, -0.159929007, -0.0601769984,     0.001345
   1655,    -0.159823, -0.0600989982, 0.00334000005
   1656, -0.159718007, -0.0599550009, 0.00533200009
   1657,    -0.159612, -0.0597449988, 0.00731799984
   1658, -0.159505993, -0.0594700016,     0.009296
   1659,    -0.159401, -0.0591280013, 0.0112629998
   1660, -0.159294993, -0.0587220006, 0.0132179996
   1661, -0.159189999, -0.0582510009, 0.0151589997
   1662, -0.159084007, -0.0577160008, 0.0170830004
   1663,    -0.158978, -0.0571179986, 0.0189880002
   1664, -0.158873007, -0.0564570017, 0.0208730008
   1665,    -0.158767, -0.055732999, 0.0227339994
   1666, -0.158662006, -0.0549490005, 0.0245699994
   1667, -0.158555999, -0.0541029982, 0.0263790004
   1668, -0.158450007, -0.0531979986,     0.028159
   1669, -0.158344999, -0.0522349998, 0.0299089998
   1670, -0.158239007, -0.0512139983, 0.0316249989
   1671, -0.158133999, -0.0501369983, 0.0333059989
   1672, -0.158028007, -0.0490050018, 0.0349510014
   1673,    -0.157922, -0.0478180014, 0.0365570001
   1674, -0.157817006, -0.0465789996, 0.0381239988
   1675, -0.157710999, -0.0452889986, 0.0396480002
   1676, -0.157605007, -0.0439490005, 0.0411279984
   1677, -0.157499999,     -0.04256, 0.0425629988
   1678, -0.157394007, -0.0411249995, 0.0439519994
   1679, -0.157288998, -0.0396439992, 0.0452920012
   1680, -0.157183006, -0.0381200016, 0.0465819985
   1681,    -0.157077, -0.0365540013, 0.0478210002
   1682, -0.156972006, -0.0349479988, 0.0490069985
   1683, -0.156865999,    -0.033303, 0.0501389988
   1684, -0.156761006, -0.0316210017, 0.0512159988
   1685, -0.156654999, -0.0299050007, 0.0522370003
   1686, -0.156549007, -0.0281559993, 0.0532010011
   1687, -0.156443998, -0.0263749994, 0.0541049987
   1688, -0.156338006, -0.0245660003, 0.0549499989
   1689, -0.156232998, -0.0227300003, 0.0557349995
   1690, -0.156127006, -0.0208679996, 0.0564580001
   1691, -0.156020999, -0.0189839993, 0.0571190007
   1692, -0.155916005, -0.0170789994, 0.0577180013
   1693, -0.155809999, -0.0151549997, 0.0582530014
   1694, -0.155705005, -0.0132139996, 0.0587229989
   1695, -0.155598998, -0.0112589998, 0.0591289997
   1696, -0.155493006, -0.00929099973, 0.0594700016
   1697, -0.155387998, -0.00731399981, 0.0597460009
   1698, -0.155282006, -0.00532800006, 0.0599550009
   1699, -0.155176997, -0.00333600002, 0.0600989982
   1700, -0.155071005, -0.00133999996, 0.0601769984
   1701, -0.154964998, 0.000655999989, 0.0601879992
   1702, -0.154860005, 0.00265299994,  0.060132999
   1703, -0.154753998, 0.00464599999, 0.0600120015
   1704, -0.154648006, 0.00663400022, 0.0598249994
   1705, -0.154542997, 0.00861500017, 0.0595720001
   1706, -0.154437006,     0.010586, 0.0592529997
   1707, -0.154331997, 0.0125460001, 0.0588699989
   1708, -0.154226005, 0.0144920005, 0.0584210008
   1709, -0.154119998, 0.0164219998, 0.0579079986
   1710, -0.154015005, 0.0183339994, 0.0573320016
   1711, -0.153908998, 0.0202249996, 0.0566920005
   1712, -0.153804004, 0.0220950004, 0.0559899993
   1713, -0.153697997, 0.0239400007, 0.0552259982
   1714, -0.153592005, 0.0257590003, 0.0544020012
   1715, -0.153486997, 0.0275490005, 0.0535169989
   1716, -0.153381005, 0.0293090008, 0.0525740013
   1717, -0.153275996, 0.0310369991, 0.0515730008
   1718, -0.153170004, 0.0327310003, 0.0505149998
   1719, -0.153063998, 0.0343879983, 0.0494010001
   1720, -0.152959004, 0.0360080004, 0.0482329987
   1721, -0.152852997, 0.0375880003, 0.0470120013
   1722, -0.152748004, 0.0391269997, 0.0457389988
   1723, -0.152641997, 0.0406230018, 0.0444159992
   1724, -0.152536005, 0.0420739986, 0.0430440009
   1725, -0.152430996, 0.0434789993, 0.0416250005
   1726, -0.152325004, 0.0448350012, 0.0401600003
   1727, -0.152218997, 0.0461429991, 0.0386510007
   1728, -0.152114004, 0.0474000014, 0.0370990001
   1729, -0.152007997, 0.0486040004, 0.0355059989
   1730, -0.151903003, 0.0497549996, 0.0338740014
   1731, -0.151796997, 0.0508520007, 0.0322050005
   1732, -0.151691005, 0.0518920012, 0.0305000003
   1733, -0.151585996,  0.052875001, 0.0287619997
   1734, -0.151480004, 0.0538000017, 0.0269920006
   1735, -0.151374996, 0.0546660013, 0.0251930002
   1736, -0.151269004, 0.0554709993, 0.0233660005
   1737, -0.151162997, 0.0562160015, 0.0215130001
   1738, -0.151058003,     0.056899, 0.0196359996
   1739, -0.150951996,     0.057519, 0.0177379996
   1740, -0.150847003, 0.0580749996, 0.0158200003
   1741, -0.150740996, 0.0585680008, 0.0138849998
   1742, -0.150635004, 0.0589970015, 0.0119350003
   1743, -0.150529996, 0.0593600012, 0.00997100025
   1744, -0.150424004, 0.0596579984, 0.00799600035
   1745, -0.150318995, 0.0598899983, 0.00601299992
   1746, -0.150213003, 0.0600569993, 0.00402300013
   1747, -0.150106996,  0.060157001, 0.00202900008
   1748, -0.149994001, 0.0601920001, 3.30000003e-05
   1749, -0.149813995, 0.0601620004, -0.00195800001
   1750, -0.149510995, 0.0600689985, -0.0039309999
   1751, -0.149076998, 0.0599149987, -0.00587600004
   1752, -0.148514003, 0.0596989989, -0.00778200012
   1753, -0.147825003, 0.0594240017, -0.00963800028
   1754, -0.147014007, 0.0590910017,    -0.011434
   1755, -0.146086007,  0.058699999, -0.0131599996
   1756, -0.145044997, 0.0582560003, -0.0148069998
   1757, -0.143897995, 0.0577600002, -0.0163669996
   1758, -0.142649993, 0.0572139993, -0.0178289991
   1759, -0.141307995, 0.0566230007, -0.0191869996
   1760, -0.139880002, 0.0559879988, -0.0204329994
   1761, -0.138373002, 0.0553140007, -0.0215600003
   1762, -0.136795998, 0.0546040013, -0.0225620009
   1763, -0.135158002, 0.0538620017, -0.0234340001
   1764, -0.133467004, 0.0530919991, -0.0241700001
   1765, -0.131732002, 0.0522979982, -0.0247670002
   1766, -0.129963994, 0.0514849983, -0.0252209995
   1767, -0.128170997, 0.0506579988, -0.0255299993
   1768, -0.126363993, 0.0498199984, -0.0256929994
   1769, -0.124551997, 0.0489760004, -0.0257070009
   1770, -0.122745998, 0.0481310003, -0.0255740006
   1771, -0.120954998,  0.047288999,    -0.025293
   1772, -0.119182996, 0.0464540012, -0.0248939991
   1773, -0.117420003, 0.0456210002, -0.0244500004
   1774, -0.115657002, 0.0447890013, -0.0240039993
   1775, -0.113894001, 0.0439560004, -0.0235580001
   1776,    -0.112131, 0.0431240015, -0.0231120009
   1777, -0.110367998, 0.0422910005, -0.0226659998
   1778, -0.108604997, 0.0414590016, -0.0222200006
   1779, -0.106841996, 0.0406260006, -0.0217729993
   1780, -0.105079003, 0.0397940017, -0.0213270001
   1781, -0.103316002, 0.0389610007, -0.0208810009
   1782, -0.101553001, 0.0381290019, -0.0204349998
   1783, -0.0997899994, 0.0372969992, -0.0199890006
   1784, -0.0980269983, 0.0364639983, -0.0195429996
   1785, -0.0962639973, 0.0356319994, -0.0190960001
   1786, -0.0945010036, 0.0347989984, -0.0186500009
   1787, -0.0927380025, 0.0339669995, -0.0182039998
   1788, -0.0909750015, 0.0331339985, -0.0177580006
   1789, -0.0892120004, 0.0323019996, -0.0173119996
   1790, -0.0874499977, 0.0314689986, -0.0168660004
   1791, -0.0856869966, 0.0306369998, -0.0164199993
   1792, -0.0839240029, 0.0298040006, -0.0159729999
   1793, -0.0821610019, 0.0289719999, -0.0155269997
   1794, -0.0803980008, 0.0281390008, -0.0150809996
   1795, -0.0786349997,     0.027307, -0.0146350004
   1796, -0.0768719986, 0.0264749993, -0.0141890002
   1797, -0.0751089975, 0.0256420001, -0.0137430001
   1798, -0.0733459964, 0.0248099994,    -0.013297
   1799, -0.0715830028, 0.0239770003, -0.0128499996
   1800, -0.0698200017, 0.0231449995, -0.0124040004
   1801, -0.0680570006, 0.0223120004, -0.0119580003
   1802, -0.0662939996, 0.0214799996, -0.0115120001
   1803, -0.0645309985, 0.0206470005,    -0.011066
   1804, -0.0627679974, 0.0198149998, -0.0106199998
   1805,    -0.061005, 0.0189820006, -0.0101730004
   1806, -0.0592419989, 0.0181499999, -0.00972700026
   1807,     -0.05748, 0.0173179992, -0.00928100012
   1808, -0.0557169989,     0.016485, -0.00883499999
   1809, -0.0539540015, 0.0156529993, -0.00838899985
   1810, -0.0521910004, 0.0148200002, -0.00794299971
   1811, -0.0504279993, 0.0139880003, -0.00749700004
   1812, -0.0486649983, 0.0131550003, -0.00705000013
   1813, -0.0469020009, 0.0123229995, -0.00660399999
   1814, -0.0451389998, 0.0114900004, -0.00615799986
   1815, -0.0433759987, 0.0106579997, -0.00571200019
   1816, -0.0416130014, 0.00982499961, -0.00526600005
   1817, -0.0398500003, 0.00899299979, -0.00481999991
   1818, -0.0380799994, 0.00817199983, -0.00437999982
   1819,    -0.036293, 0.00738100009, -0.00395599985
   1820, -0.0344850011, 0.00662899995, -0.00355300005
   1821, -0.0326559991, 0.0059150001, -0.00316999992
   1822, -0.0308090001, 0.00523999985, -0.00280799996
   1823, -0.0289430004, 0.00460400013, -0.00246799993
   1824, -0.0270610005, 0.00400900003, -0.00214900007
   1825, -0.0251630004, 0.00345399999, -0.00185100001
   1826, -0.0232500006, 0.00293900003,    -0.001575
   1827, -0.0213239994, 0.00246499991, -0.00132100005
   1828, -0.0193860009, 0.00203200011, -0.00108900003
   1829, -0.0174359996, 0.00164000003, -0.000878999999
   1830, -0.0154759996, 0.00129000004, -0.000691999972
   1831, -0.0135070002, 0.000982000027, -0.000525999989
   1832, -0.0115299998, 0.00071599998, -0.000384000014
   1833, -0.00954599958, 0.000492000021, -0.000264000002
   1834, -0.00755700003, 0.000310000003, -0.000165999998
   1835, -0.00556300022, 0.000169999999, -9.10000017e-05
   1836, -0.00356599991, 7.30000029e-05, -3.89999987e-05
   1837, -0.00156799995, 1.89999992e-05, -9.99999975e-06
   1838, 0.000432000001, 9.99999997e-07, -9.99999997e-07
   1839, 0.00243199989,           0.,           0.
   1840, 0.00443200022,           0.,           0.
   1841, 0.00643200008,           0.,           0.
   1842, 0.00843199994,           0.,           0.
   1843, 0.0104320003,           0.,           0.
   1844, 0.0124319997,           0.,           0.
   1845,     0.014432,           0.,           0.
   1846, 0.0164320003,           0.,           0.
   1847, 0.0184320007,           0.,           0.
   1848, 0.0204319991,           0.,           0.
   1849, 0.0224319994,           0.,           0.
   1850, 0.0244319998,           0.,           0.
   1851, 0.0264320001,           0.,           0.
   1852, 0.0284320004,           0.,           0.
   1853, 0.0304320008,           0.,           0.
   1854, 0.0324320011,           0.,           0.
   1855, 0.0344320014,           0.,           0.
   1856, 0.0364320017,           0.,           0.
   1857, 0.0384319983,           0.,           0.
   1858, 0.0404319987,           0.,           0.
   1859,  0.042431999,           0.,           0.
   1860, 0.0444319993,           0.,           0.
   1861, 0.0464319997,           0.,           0.
   1862,     0.048432,           0.,           0.
   1863, 0.0504320003,           0.,           0.
   1864, 0.0524320006,           0.,           0.
   1865,  0.054432001,           0.,           0.
   1866, 0.0564320013,           0.,           0.
   1867, 0.0584320016,           0.,           0.
   1868, 0.0604319982,           0.,           0.
   1869, 0.0624319986,           0.,           0.
   1870, 0.0644320026,           0.,           0.
   1871, 0.0664319992,           0.,           0.
   1872, 0.0684320033,           0.,           0.
   1873, 0.0704319999,           0.,           0.
   1874, 0.0724319965,           0.,           0.
   1875, 0.0744320005,           0.,           0.
   1876, 0.0764319971,           0.,           0.
   1877, 0.0784320012,           0.,           0.
   1878, 0.0804319978,           0.,           0.
   1879, 0.0824320018,           0.,           0.
   1880, 0.0844319984,           0.,           0.
   1881, 0.0864320025,           0.,           0.
   1882, 0.0884319991,           0.,           0.
   1883, 0.0904320031,           0.,           0.
   1884, 0.0924319997,           0.,           0.
   1885, 0.0944319963,           0.,           0.
   1886, 0.0964320004,           0.,           0.
   1887,  0.098431997,           0.,           0.
   1888,  0.100432001,           0.,           0.
   1889,  0.102431998,           0.,           0.
   1890,  0.104432002,           0.,           0.
   1891,  0.106431998,           0.,           0.
   1892,  0.108432002,           0.,           0.
   1893,  0.110431999,           0.,           0.
   1894,  0.112432003,           0.,           0.
   1895,     0.114432,           0.,           0.
   1896,  0.116432004,           0.,           0.
   1897,     0.118432,           0.,           0.
   1898,  0.120431997,           0.,           0.
   1899,  0.122432001,           0.,           0.
   1900,  0.124431998,           0.,           0.
   1901,  0.126432002,           0.,           0.
   1902,  0.128432006,           0.,           0.
   1903,  0.130431995,           0.,           0.
   1904,  0.132431999,           0.,           0.
   1905,  0.134432003,           0.,           0.
   1906,  0.136432007,           0.,           0.
   1907,  0.138431996,           0.,           0.
   1908,     0.140432,           0.,           0.
   1909,  0.142432004,           0.,           0.
   1910,  0.144431993,           0.,           0.
   1911,  0.146431997,           0.,           0.
   1912,  0.148432001,           0.,           0.
   1913,  0.150432006,           0.,           0.
   1914,  0.152431995,           0.,           0.
   1915,  0.154431999,           0.,           0.
   1916,  0.156432003,           0.,           0.
   1917,  0.158432007,           0.,           0.
   1918,  0.160431996,           0.,           0.
   1919,     0.162432,           0.,           0.
   1920,  0.164432004,           0.,           0.
   1921,  0.166431993,           0.,           0.
   1922,  0.168431997,           0.,           0.
   1923,  0.170432001,           0.,           0.
   1924,  0.172432005,           0.,           0.
   1925,  0.174431995,           0.,           0.
   1926,  0.176431999,           0.,           0.
   1927,  0.178432003,           0.,           0.
   1928,  0.180432007,           0.,           0.
   1929,  0.182431996,           0.,           0.
   1930,     0.184432,           0.,           0.
   1931,  0.186432004,           0.,           0.
   1932,  0.188431993,           0.,           0.
   1933,  0.190431997,           0.,           0.
   1934,  0.192432001,           0.,           0.
   1935,  0.194432005,           0.,           0.
   1936,  0.196431994,           0.,           0.
   1937,  0.198431998,           0.,           0.
   1938,  0.200432003,           0.,           0.
   1939,  0.202432007,           0.,           0.
   1940,  0.204431996,           0.,           0.
   1941,     0.206432,           0.,           0.
   1942,  0.208432004,           0.,           0.
   1943,  0.210431993,           0.,           0.
   1944,  0.212431997,           0.,           0.
   1945,  0.214432001,           0.,           0.
   1946,  0.216432005,           0.,           0.
   1947,  0.218431994,           0.,           0.
   1948,  0.220431998,           0.,           0.
   1949,  0.222432002,           0.,           0.
   1950,  0.224432006,           0.,           0.
   1951,  0.226431996,           0.,           0.
   1952,     0.228432,           0.,           0.
   1953,  0.230432004,           0.,           0.
   1954,  0.232431993,           0.,           0.
   1955,  0.234431997,           0.,           0.
   1956,  0.236432001,           0.,           0.
   1957,  0.238432005,           0.,           0.
   1958,  0.240431994,           0.,           0.
   1959,  0.242431998,           0.,           0.
   1960,  0.244432002,           0.,           0.
   1961,  0.246432006,           0.,           0.
   1962,  0.248431996,           0.,           0.
   1963,  0.250432014,           0.,           0.
   1964,  0.252431989,           0.,           0.
   1965,  0.254431993,           0.,           0.
   1966,  0.256431997,           0.,           0.
   1967,  0.258432001,           0.,           0.
   1968,  0.260432005,           0.,           0.
   1969,  0.262432009,           0.,           0.
   1970,  0.264432013,           0.,           0.
   1971,  0.266431987,           0.,           0.
   1972,  0.268431991,           0.,           0.
   1973,  0.270431995,           0.,           0.
   1974,  0.272431999,           0.,           0.
   1975,  0.274432003,           0.,           0.
   1976,  0.276432008,           0.,           0.
   1977,  0.278432012,           0.,           0.
   1978,  0.280431986,           0.,           0.
   1979,  0.282216012,           0.,           0.
   1980, -0.220500007, 0.0903619975,           0.
   1981,    -0.220376, 0.0903059989,    -0.002997
   1982, -0.220301002, 0.0901670009, -0.00599199999
   1983, -0.220243007, 0.0899330005, -0.0089809997
   1984, -0.220167994, 0.0895949975,    -0.011961
   1985,    -0.220045, 0.0891439989, -0.0149250003
   1986, -0.219901994, 0.0885879993, -0.0178720001
   1987, -0.219786003,  0.087944001, -0.0208000001
   1988,    -0.219687,  0.087206997, -0.0237060003
   1989, -0.219588995, 0.0863749981, -0.0265870001
   1990, -0.219476998, 0.0854440033, -0.0294369999
   1991, -0.219344005, 0.0844129995, -0.0322519988
   1992, -0.219235003, 0.0832950026, -0.0350329988
   1993, -0.219152004, 0.0820930004, -0.0377800018
   1994, -0.219074994, 0.0808029994, -0.0404869989
   1995, -0.218983993, 0.0794200003, -0.0431470014
   1996, -0.218860999, 0.0779400021, -0.0457549989
   1997, -0.218721002, 0.0763700008, -0.0483100004
   1998, -0.218613997, 0.0747250021, -0.0508159995
   1999, -0.218527004, 0.0730030015, -0.053270001
   2000, -0.218439996, 0.0712009966, -0.0556659997
   2001, -0.218336001, 0.0693150014, -0.0579980016
   2002, -0.218200997, 0.0673459992, -0.0602589995
   2003, -0.218079001, 0.0653069988, -0.0624560006
   2004, -0.217987001, 0.0632020012, -0.064590998
   2005,    -0.217905, 0.0610300004, -0.0666579977
   2006, -0.217814997, 0.0587880015, -0.0686490014
   2007, -0.217695996, 0.0564760007, -0.0705579966
   2008, -0.217557997, 0.0540979989, -0.0723849982
   2009, -0.217449993, 0.0516670011, -0.074138999
   2010,    -0.217363, 0.0491820015, -0.0758169964
   2011, -0.217279002, 0.0466439985, -0.0774120018
   2012,    -0.217179,  0.044050999, -0.0789180025
   2013, -0.217045993, 0.0414049998, -0.0803290009
   2014, -0.216919005, 0.0387150012, -0.0816520005
   2015, -0.216821998, 0.0359859988, -0.0828939974
   2016, -0.216739997, 0.0332189985, -0.084048003
   2017, -0.216650993, 0.0304150004, -0.0851090029
   2018, -0.216537997, 0.0275740009, -0.0860690027
   2019, -0.216398999, 0.0247009993, -0.0869259983
   2020, -0.216286004, 0.0218029991, -0.0876960009
   2021, -0.216197997, 0.0188829992, -0.0883760005
   2022, -0.216114998, 0.0159430001, -0.0889609978
   2023, -0.216018006, 0.0129829999, -0.0894429982
   2024, -0.215890005, 0.0100079998, -0.0898180008
   2025, -0.215757996, 0.00702300016, -0.0900920033
   2026, -0.215657994, 0.00403100019, -0.0902770013
   2027, -0.215574995, 0.00103399996, -0.0903680027
   2028, -0.215488002, -0.00196500006, -0.0903579965
   2029,    -0.215379, -0.00496099982, -0.0902429968
   2030,    -0.215241, -0.00795099977, -0.0900179967
   2031, -0.215123996, -0.0109320004, -0.0897009969
   2032, -0.215032995, -0.0139020002, -0.0892940015
   2033, -0.214950994, -0.0168580003, -0.0887909979
   2034, -0.214856997, -0.0197950006, -0.0881860033
   2035, -0.214733005, -0.0227080006, -0.0874760002
   2036,    -0.214598, -0.0255939998, -0.086664997
   2037, -0.214494005, -0.0284550004, -0.0857689977
   2038, -0.214408994, -0.0312869996, -0.0847840011
   2039, -0.214324996, -0.0340850018, -0.083705999
   2040, -0.214220002, -0.0368430018, -0.0825290009
   2041, -0.214083999, -0.0395560004, -0.0812529996
   2042, -0.213962004,    -0.042227, -0.079892002
   2043, -0.213868007, -0.0448560007, -0.0784500018
   2044, -0.213786006, -0.047437001, -0.076925002
   2045, -0.213695005,    -0.049966, -0.0753130019
   2046, -0.213576004, -0.0524340011, -0.0736109987
   2047, -0.213439003, -0.0548410006, -0.0718230009
   2048, -0.213330999, -0.0571929999, -0.0699639991
   2049, -0.213244006, -0.0594860017, -0.0680330023
   2050, -0.213161007, -0.0617149994, -0.0660270005
   2051, -0.213060006, -0.0638720021, -0.0639450029
   2052, -0.212926999, -0.065952003, -0.0617850013
   2053, -0.212799996, -0.0679600015, -0.0595589988
   2054, -0.212704003, -0.069900997, -0.0572739989
   2055, -0.212621003, -0.0717680007, -0.054928001
   2056, -0.212532997, -0.0735550001, -0.0525199994
   2057, -0.212419003, -0.0752540007, -0.0500500016
   2058, -0.212280005, -0.0768639967, -0.0475200005
   2059, -0.212167993,    -0.078396, -0.0449430011
   2060, -0.212079003, -0.0798489973, -0.0423210002
   2061, -0.211996004, -0.0812150016, -0.0396520011
   2062, -0.211898997, -0.0824880004, -0.0369369984
   2063, -0.211770996, -0.0836609975, -0.0341779999
   2064, -0.211639002, -0.0847409964, -0.0313809998
   2065, -0.211539999, -0.0857380033, -0.0285529997
   2066, -0.211456001, -0.0866440013, -0.0256949998
   2067, -0.211368993, -0.087454997, -0.0228090007
   2068, -0.211261004, -0.0881619975, -0.0198950004
   2069, -0.211122006, -0.088763997, -0.0169569999
   2070, -0.211005002, -0.0892739967, -0.0140030002
   2071, -0.210914999, -0.0896940008,    -0.011035
   2072,    -0.210832, -0.0900169984, -0.00805400033
   2073, -0.210738003, -0.0902390033, -0.00506399991
   2074, -0.210613996, -0.0903510004, -0.00206699991
   2075, -0.210479006, -0.0903609991, 0.000930999988
   2076, -0.210375994, -0.0902810022, 0.00392800011
   2077, -0.210290998, -0.0901070014, 0.00692099985
   2078, -0.210206002, -0.089835003, 0.00990699977
   2079, -0.210100994, -0.0894569978, 0.0128809996
   2080, -0.209965006, -0.0889709964, 0.0158399995
   2081, -0.209842995, -0.0883919969, 0.0187819991
   2082, -0.209749997, -0.0877240002, 0.0217039995
   2083, -0.209666997, -0.0869619995, 0.0246040002
   2084, -0.209575996, -0.0861029997, 0.0274769999
   2085, -0.209456995, -0.0851399973, 0.0303160008
   2086, -0.209319994, -0.084077999, 0.0331199989
   2087, -0.209212005, -0.0829330012, 0.0358910002
   2088, -0.209125996, -0.0817020014, 0.0386249982
   2089, -0.209041998, -0.0803819969,  0.041317001
   2090, -0.208940998, -0.0789680034, 0.0439609997
   2091, -0.208808005, -0.0774590001, 0.0465519987
   2092, -0.208681002, -0.0758669972, 0.0490919985
   2093, -0.208584994, -0.0741989985, 0.0515840016
   2094, -0.208502993, -0.0724529997, 0.0540210009
   2095, -0.208414003, -0.0706249997, 0.0563980006
   2096, -0.208299994, -0.0687130019, 0.0587080009
   2097, -0.208160996, -0.0667209998, 0.0609479994
   2098, -0.208048999, -0.0646610036, 0.0631259978
   2099, -0.207960993, -0.0625350028, 0.0652400032
   2100, -0.207877994, -0.0603410006, 0.0672840029
   2101, -0.207781002, -0.0580779985, 0.0692510009
   2102, -0.207652003, -0.0557439998, 0.0711330026
   2103, -0.207521006, -0.0533489995, 0.0729369968
   2104, -0.207421005, -0.0509009995, 0.0746679977
   2105, -0.207338005, -0.0483999997, 0.0763209984
   2106, -0.207250997, -0.0458449982, 0.0778900012
   2107, -0.207140997, -0.0432350002, 0.0793669969
   2108, -0.207002997, -0.0405739993, 0.0807479993
   2109, -0.206885993, -0.0378720015, 0.0820460021
   2110, -0.206796005,    -0.035131, 0.0832619965
   2111, -0.206713006, -0.0323520005, 0.0843880028
   2112, -0.206618994, -0.0295359995, 0.0854180008
   2113, -0.206495002, -0.0266849995, 0.0863450021
   2114, -0.206359997, -0.0238039996, 0.0871739984
   2115, -0.206257001, -0.0208989996, 0.0879170001
   2116, -0.206173003, -0.0179719999,  0.088568002
   2117, -0.206086993, -0.0150260003, 0.0891219974
   2118,    -0.205982, -0.0120609999, 0.0895709991
   2119, -0.205845997, -0.00908199977, 0.0899119973
   2120, -0.205724001, -0.00609399984,  0.090158999
   2121, -0.205631003, -0.00310000009, 0.0903159976
   2122, -0.205549002, -0.000102999998, 0.0903759971
   2123, -0.205457002, 0.00289499993, 0.0903339982
   2124, -0.205338001, 0.00589000015, 0.0901840031
   2125,    -0.205201, 0.00887699984, 0.0899289995
   2126, -0.205093995, 0.0118549997, 0.0895849988
   2127,    -0.205008, 0.0148219997, 0.0891479999
   2128, -0.204924002, 0.0177720003, 0.0886140019
   2129, -0.204823002, 0.0207020007, 0.0879769996
   2130, -0.204688996, 0.0236070007, 0.0872339979
   2131, -0.204563007,     0.026486, 0.0863960013
   2132, -0.204466999, 0.0293380003,  0.085473001
   2133, -0.204383999,  0.032159999, 0.0844599977
   2134, -0.204294994, 0.0349459983, 0.0833510011
   2135, -0.204181001, 0.0376899987, 0.0821439996
   2136, -0.204042003, 0.0403899997, 0.0808390006
   2137, -0.203930005, 0.0430480018, 0.0794529989
   2138, -0.203842998, 0.0456629992,  0.077986002
   2139, -0.203759998, 0.0482279994, 0.0764340013
   2140, -0.203661993, 0.0507390015, 0.0747950003
   2141, -0.203532994, 0.0531870015, 0.0730639994
   2142, -0.203401998, 0.0555769987, 0.0712540001
   2143, -0.203301996, 0.0579110011, 0.0693719983
   2144, -0.203218997, 0.0601850003, 0.0674180016
   2145, -0.203132004, 0.0623920001, 0.0653889999
   2146, -0.203022003, 0.0645259991,  0.063281998
   2147, -0.202884004, 0.0665820017, 0.0610999987
   2148, -0.202767998, 0.0685700029, 0.0588559993
   2149, -0.202677995, 0.0704879984, 0.0565520003
   2150, -0.202594995, 0.0723309964, 0.0541869998
   2151, -0.202500999, 0.0740920007, 0.0517599992
   2152, -0.202375993,  0.075763002, 0.0492700003
   2153, -0.202241004, 0.0773480013, 0.0467250012
   2154, -0.202139005, 0.0788559988, 0.0441339985
   2155, -0.202053994, 0.0802830011, 0.0414969996
   2156, -0.201968998, 0.0816209987, 0.0388140008
   2157, -0.201863006,  0.082863003, 0.0360849984
   2158, -0.201727003, 0.0840059966, 0.0333129987
   2159, -0.201605007, 0.0850600004, 0.0305059999
   2160, -0.201513007, 0.0860290006, 0.0276689995
   2161, -0.201429993,  0.086906001, 0.0248019993
   2162, -0.201339006, 0.0876860023, 0.0219069999
   2163, -0.201219007, 0.0883599967, 0.0189849995
   2164, -0.201082006, 0.0889310017, 0.0160419997
   2165, -0.200975001, 0.0894140005, 0.0130829997
   2166, -0.200889006, 0.0898049995, 0.0101100001
   2167, -0.200804994, 0.0900970027, 0.00712599978
   2168, -0.200703993, 0.0902860016, 0.00413399981
   2169, -0.200570002, 0.0903640017, 0.00113600004
   2170, -0.200443998, 0.0903460011, -0.00186199998
   2171, -0.200348005, 0.0902369991, -0.0048580002
   2172, -0.200266004, 0.0900340006, -0.00784900039
   2173, -0.200176999, 0.0897290036, -0.0108319996
   2174, -0.200062007, 0.0893179998, -0.0138020003
   2175, -0.199922994, 0.0887999982, -0.0167549998
   2176, -0.199811995, 0.0881939977, -0.0196909998
   2177, -0.199724004, 0.0874980018, -0.0226070005
   2178, -0.199641004, 0.0867059976, -0.0254989993
   2179, -0.199542999, 0.0858149976, -0.0283620004
   2180,    -0.199414, 0.0848200023, -0.0311910007
   2181, -0.199283004, 0.0837310031, -0.0339840017
   2182,    -0.199184, 0.0825600028, -0.0367439985
   2183, -0.199101001, 0.0813020021, -0.039464999
   2184, -0.199013993, 0.0799529999, -0.0421429984
   2185, -0.198903993, 0.0785100013, -0.0447719991
   2186, -0.198764995, 0.0769729987, -0.0473459996
   2187, -0.198649004, 0.0753569975, -0.0498710014
   2188, -0.198559001, 0.0736650005, -0.0523459986
   2189,    -0.198477, 0.0718939975, -0.0547659993
   2190, -0.198382005, 0.0700410008, -0.0571219996
   2191, -0.198256999, 0.0681030005, -0.0594099984
   2192, -0.198121995, 0.0660879984, -0.0616310015
   2193, -0.198019996, 0.0640079975, -0.063790001
   2194, -0.197935998,  0.061861001, -0.0658830032
   2195, -0.197850004, 0.0596459992, -0.0679029971
   2196, -0.197744995, 0.0573600009,    -0.069844
   2197, -0.197607994, 0.0550060011, -0.0717009977
   2198, -0.197486997, 0.0525950007, -0.0734819993
   2199, -0.197393999, 0.0501299985, -0.0751900002
   2200, -0.197311997, 0.0476120003, -0.0768169984
   2201, -0.197219998, 0.0450400002, -0.078358002
   2202, -0.197099999, 0.0424139984, -0.0798050016
   2203, -0.196962997, 0.0397390015, -0.0811600015
   2204, -0.196856007, 0.0370250009, -0.0824330002
   2205, -0.196770996, 0.0342720002, -0.0836210027
   2206,    -0.196686, 0.0314819999, -0.0847179964
   2207,    -0.196585,     0.028655, -0.0857170001
   2208, -0.196450993, 0.0257929992, -0.0866120011
   2209, -0.196325004, 0.0229039993, -0.0874139965
   2210, -0.196229994, 0.0199929997, -0.0881289989
   2211, -0.196146995, 0.0170600004, -0.0887510031
   2212, -0.196058005, 0.0141070001, -0.0892729983
   2213, -0.195942998, 0.0111379996, -0.0896890014
   2214,    -0.195804, 0.0081550004, -0.0899979994
   2215, -0.195693001, 0.00516499998, -0.0902180001
   2216, -0.195605993, 0.00216999999, -0.0903450027
   2217, -0.195521995, -0.000828000018, -0.0903740004
   2218, -0.195424005, -0.00382600003, -0.0902990028
   2219, -0.195293993, -0.00681800023, -0.0901150033
   2220, -0.195163995, -0.00980299991, -0.0898320004
   2221, -0.195066005,    -0.012778, -0.089459002
   2222, -0.194982007, -0.0157399997, -0.088992998
   2223, -0.194894999, -0.0186839998, -0.0884279981
   2224, -0.194784999, -0.0216070004, -0.0877579972
   2225, -0.194646001, -0.0245030001, -0.0869830027
   2226, -0.194529995, -0.0273739994, -0.0861190036
   2227, -0.194441006, -0.0302169994, -0.0851679966
   2228, -0.194358006, -0.0330290012, -0.0841260031
   2229, -0.194262996, -0.0358019993, -0.082987003
   2230, -0.194138005, -0.0385329984, -0.0817480013
   2231, -0.194003999, -0.0412189998, -0.0804169998
   2232, -0.193901002, -0.043864999, -0.0790060014
   2233, -0.193817005, -0.0464649983, -0.0775130019
   2234, -0.193731993, -0.0490139984, -0.0759349987
   2235, -0.193626001, -0.0515060015,    -0.074267
   2236,    -0.193489, -0.0539349988, -0.0725099966
   2237, -0.193368003, -0.0563080013, -0.0706769973
   2238, -0.193276003, -0.0586239994, -0.0687730014
   2239, -0.193193004, -0.0608780012, -0.0667959973
   2240, -0.193101004, -0.0630630031, -0.0647429973
   2241, -0.192981005, -0.0651730001, -0.0626119971
   2242, -0.192844003, -0.0672070011, -0.0604100004
   2243, -0.192737997, -0.0691730008, -0.0581469983
   2244, -0.192652002, -0.0710690022, -0.0558240004
   2245, -0.192568004, -0.0728870034, -0.0534400009
   2246, -0.192466006, -0.0746209994, -0.0509929992
   2247,    -0.192332, -0.0762640014, -0.0484849997
   2248, -0.192205995, -0.0778250024, -0.0459249988
   2249,    -0.192111, -0.0793080032, -0.0433200002
   2250, -0.192028999, -0.0807079971, -0.0406690016
   2251, -0.191938996, -0.082016997, -0.0379710011
   2252, -0.191824004, -0.0832289979, -0.0352290012
   2253, -0.191685006, -0.0843420029, -0.0324449986
   2254, -0.191574007, -0.0853699967, -0.0296279993
   2255, -0.191486999, -0.0863109976, -0.0267820004
   2256,    -0.191404, -0.0871590003,    -0.023906
   2257, -0.191305995, -0.087906003, -0.0210020002
   2258, -0.191174999, -0.0885469988,    -0.018073
   2259, -0.191045001, -0.0890899971, -0.0151249999
   2260, -0.190946996, -0.0895449966, -0.0121609997
   2261, -0.190863997, -0.0899059996, -0.00918500032
   2262, -0.190776005, -0.0901670009, -0.00619800016
   2263, -0.190666005, -0.0903220028, -0.00320299994
   2264, -0.190527007, -0.0903680027, -0.000205000004
   2265,    -0.190412, -0.0903220028, 0.00279200007
   2266, -0.190321997, -0.0901850015, 0.00578700006
   2267, -0.190239996, -0.0899500027, 0.00877599977
   2268, -0.190145001, -0.0896129981, 0.0117560001
   2269, -0.190018997, -0.0891669989, 0.0147209996
   2270, -0.189885005, -0.088620998, 0.0176689997
   2271, -0.189783007, -0.0879879966, 0.0205990002
   2272, -0.189698994, -0.0872619972, 0.0235079993
   2273,    -0.189613, -0.086439997, 0.0263919998
   2274, -0.189506993, -0.0855169967, 0.0292440001
   2275, -0.189370006, -0.0844909996, 0.0320620015
   2276, -0.189248994, -0.0833770037, 0.0348449983
   2277, -0.189156994, -0.0821790025, 0.0375929996
   2278, -0.189074993, -0.0808930025, 0.0403020009
   2279, -0.188982993, -0.0795150027, 0.0429649986
   2280, -0.188861996, -0.0780420005, 0.0455770008
   2281, -0.188724995, -0.0764790028, 0.0481350012
   2282, -0.188619003, -0.0748400018, 0.0506450012
   2283, -0.188534006, -0.0731239989, 0.0531039983
   2284, -0.188448995, -0.0713270009, 0.0555040017
   2285, -0.188346997, -0.0694480017, 0.0578409992
   2286, -0.188213006, -0.0674839988, 0.0601070002
   2287,    -0.188088, -0.0654489994, 0.0623079985
   2288, -0.187993005, -0.0633480027, 0.0644470006
   2289, -0.187910005, -0.0611799993, 0.0665180013
   2290, -0.187820002, -0.0589440018, 0.0685150027
   2291, -0.187704995, -0.0566359982, 0.0704300031
   2292, -0.187565997, -0.0542629994, 0.0722619966
   2293, -0.187455997, -0.0518350005, 0.0740209967
   2294, -0.187369004, -0.0493539982, 0.0757040009
   2295, -0.187285006, -0.0468190014, 0.0773060024
   2296, -0.187187001, -0.0442299992, 0.0788180009
   2297, -0.187056005, -0.041588001,  0.080234997
   2298, -0.186926007, -0.0388999991, 0.0815640017
   2299, -0.186828002, -0.0361739993,  0.082810998
   2300, -0.186745003, -0.0334100015, 0.0839719996
   2301, -0.186657995, -0.0306080002, 0.0850389972
   2302, -0.186546996, -0.0277699996, 0.0860060006
   2303, -0.186407998, -0.0248990003, 0.0868699998
   2304, -0.186293006, -0.0220020004, 0.0876460001
   2305, -0.186204001, -0.0190839991, 0.0883319974
   2306, -0.186121002, -0.0161450002, 0.0889239982
   2307, -0.186026007, -0.0131869996, 0.0894130021
   2308, -0.185900003, -0.0102129998, 0.0897950009
   2309, -0.185765997, -0.00722800009, 0.0900759995
   2310, -0.185663998, -0.00423600012, 0.0902670026
   2311,     -0.18558,    -0.001239, 0.0903650001
   2312, -0.185494006, 0.00175900001, 0.0903619975
   2313, -0.185387999, 0.00475599989, 0.0902540013
   2314, -0.185250998, 0.00774599984, 0.0900370032
   2315, -0.185130998, 0.0107279997,  0.089726001
   2316, -0.185038999, 0.0136989998, 0.0893250033
   2317, -0.184955999, 0.0166560002, 0.0888279974
   2318, -0.184863999, 0.0195940007, 0.0882309973
   2319, -0.184743002, 0.0225089993, 0.0875279978
   2320, -0.184606001, 0.0253970008, 0.0867239982
   2321, -0.184499994, 0.0282600001, 0.0858329982
   2322, -0.184414998, 0.0310939997, 0.0848549977
   2323,    -0.184331, 0.0338939987, 0.0837830007
   2324, -0.184228003, 0.0366550013, 0.0826129988
   2325, -0.184093997, 0.0393720008,  0.081344001
   2326, -0.183969006, 0.0420450009, 0.0799880028
   2327, -0.183874995, 0.0446770005, 0.0785520002
   2328, -0.183791995, 0.0472620018, 0.0770329982
   2329, -0.183702007, 0.0497939996, 0.0754259974
   2330, -0.183585003, 0.0522670001, 0.0737299994
   2331, -0.183446005, 0.0546780005, 0.0719479993
   2332, -0.183336005, 0.0570329987, 0.0700929984
   2333, -0.183249995, 0.0593309999,  0.068167001
   2334, -0.183166996, 0.0615639985,  0.066166997
   2335, -0.183069006, 0.0637269989, 0.0640899986
   2336, -0.182940006, 0.0658129975, 0.0619359985
   2337, -0.182811007,  0.067824997, 0.0597140007
   2338, -0.182712004, 0.0697700009, 0.0574319996
   2339, -0.182627007, 0.0716419965,  0.055089999
   2340, -0.182537004, 0.0734340027, 0.0526859984
   2341, -0.182421997,  0.075139001, 0.0502200015
   2342, -0.182281002, 0.0767539963, 0.0476940013
   2343, -0.182165995, 0.0782919973, 0.0451200008
   2344, -0.182080001, 0.0797509998, 0.0425009988
   2345, -0.182004005, 0.0811249986, 0.0398360007
   2346, -0.181915998, 0.0824069977,  0.037126001
   2347, -0.181797996, 0.0835890025, 0.0343700014
   2348, -0.181667998, 0.0846759975, 0.0315760002
   2349, -0.181560993, 0.0856769979, 0.0287490003
   2350, -0.181464002, 0.0865859985, 0.0258920006
   2351, -0.181363001, 0.0873980001, 0.0230059996
   2352, -0.181241006, 0.0881090015, 0.0200929996
   2353, -0.181095004, 0.0887140036, 0.0171569996
   2354, -0.180986002, 0.0892330036, 0.0142050004
   2355, -0.180916995, 0.0896669999, 0.0112380004
   2356, -0.180858001, 0.0900039971, 0.00825900026
   2357, -0.180774003, 0.0902360007, 0.00526899984
   2358, -0.180639997, 0.0903519988, 0.00227300008
   2359,    -0.180464, 0.0903559998, -0.000724999991
   2360, -0.180354998, 0.0902810022, -0.00372199994
   2361, -0.180287004, 0.0901189968, -0.00671599992
   2362, -0.180227995, 0.0898609981, -0.00970300008
   2363, -0.180142999,     0.089497, -0.0126799997
   2364, -0.180008993, 0.0890180022, -0.0156399999
   2365, -0.179870993, 0.0884409994, -0.0185819995
   2366, -0.179761007, 0.0877740011, -0.0215050001
   2367, -0.179664001,  0.087015003, -0.0244059991
   2368, -0.179563999, 0.0861589983, -0.0272790007
   2369, -0.179445997, 0.0852029994, -0.0301210005
   2370, -0.179315001, 0.0841500014, -0.0329280011
   2371, -0.179213002, 0.0830119997, -0.0357020013
   2372, -0.179133996, 0.0817890018, -0.0384389982
   2373, -0.179055005, 0.0804769993, -0.0411349982
   2374, -0.178957999, 0.0790710002, -0.0437830016
   2375, -0.178825006, 0.0775670037, -0.0463780016
   2376, -0.178692997, 0.0759790018, -0.0489210002
   2377, -0.178591996, 0.0743160024, -0.0514150001
   2378,    -0.178507, 0.0725739971, -0.0538560003
   2379, -0.178417996, 0.0707520023, -0.056237001
   2380, -0.178305998, 0.0688460022, -0.0585509986
   2381, -0.178167999, 0.0668589994, -0.0607960001
   2382, -0.178055003, 0.0648029968, -0.0629789978
   2383, -0.177966997, 0.0626820028, -0.0650980026
   2384, -0.177884996, 0.0604929999, -0.0671470016
   2385, -0.177789003, 0.0582350008, -0.0691189989
   2386,    -0.177662, 0.0559060015, -0.0710069984
   2387, -0.177529007, 0.0535149984, -0.0728159994
   2388, -0.177426994,  0.051070001, -0.0745519996
   2389, -0.177342996, 0.0485729985, -0.0762099996
   2390, -0.177257001, 0.0460209996, -0.0777850002
   2391, -0.177149996, 0.0434149988, -0.0792689994
   2392, -0.177012995, 0.0407579988, -0.0806559995
   2393, -0.176892996, 0.0380580015, -0.0819600001
   2394, -0.176801994, 0.0353199989, -0.0831810012
   2395, -0.176719993, 0.0325439982, -0.0843140036
   2396, -0.176626995, 0.0297299996, -0.0853509977
   2397, -0.176504999,     0.026881, -0.0862850025
   2398, -0.176368997, 0.0240020007, -0.0871199965
   2399, -0.176263005, 0.0210989993, -0.0878690034
   2400, -0.176177993, 0.0181729998, -0.0885260031
   2401, -0.176093996, 0.0152279995, -0.089087002
   2402, -0.175990999, 0.0122649996, -0.0895439982
   2403, -0.175855994, 0.0092869997,    -0.089892
   2404, -0.175732002, 0.00629899977, -0.0901449993
   2405, -0.175637007, 0.00330600003, -0.0903080031
   2406, -0.175555006, 0.000307999988, -0.0903749987
   2407, -0.175465003, -0.00268999999, -0.0903400034
   2408, -0.175347999, -0.00568500021, -0.0901980028
   2409, -0.175209001, -0.00867300015, -0.0899500027
   2410, -0.175099999, -0.0116520002, -0.0896110013
   2411, -0.175013006, -0.0146190003, -0.0891809985
   2412, -0.174930006, -0.0175710004, -0.0886539966
   2413, -0.174830005, -0.0205019992, -0.0880239978
   2414, -0.174698994, -0.0234089997, -0.0872879997
   2415, -0.174569994, -0.0262889992, -0.0864560008
   2416, -0.174473003, -0.0291440003, -0.0855389982
   2417, -0.174390003, -0.0319680013, -0.0845320001
   2418, -0.174301997, -0.0347560011, -0.0834299996
   2419,     -0.17419, -0.0375039987, -0.0822300017
   2420, -0.174051002, -0.0402060002, -0.0809310004
   2421, -0.173936993, -0.0428670011, -0.079549998
   2422, -0.173848003, -0.0454850011, -0.0780889988
   2423, -0.173765004, -0.0480539985, -0.0765430033
   2424, -0.173668995, -0.0505690016,     -0.07491
   2425, -0.173541993, -0.0530220009, -0.0731860027
   2426, -0.173409998, -0.0554150008, -0.0713799968
   2427, -0.173308998, -0.0577530004, -0.0695030019
   2428, -0.173225001, -0.0600319989, -0.067553997
   2429, -0.173139006, -0.0622440018, -0.0655300021
   2430, -0.173031002, -0.0643830001, -0.063428998
   2431, -0.172894001, -0.0664440021, -0.0612520017
   2432,    -0.172775, -0.0684359968, -0.0590110011
   2433, -0.172683001, -0.0703589991, -0.0567109995
   2434, -0.172600999, -0.0722080022, -0.0543509983
   2435, -0.172508001, -0.0739739984, -0.0519279987
   2436, -0.172386006, -0.0756520033, -0.0494420007
   2437, -0.172250003, -0.0772420019, -0.0469009988
   2438, -0.172144994, -0.0787549987, -0.0443129987
   2439, -0.172059998, -0.0801879987, -0.0416789986
   2440, -0.171975002, -0.0815320015, -0.0389989987
   2441, -0.171872005, -0.0827820003, -0.0362729989
   2442,    -0.171737, -0.083930999, -0.0335040018
   2443, -0.171612993, -0.0849900022, -0.0306989998
   2444, -0.171518996, -0.0859650001, -0.0278639998
   2445, -0.171435997, -0.0868489966, -0.0249990001
   2446, -0.171345994, -0.087635003, -0.0221059993
   2447, -0.171229005, -0.0883169994, -0.0191859994
   2448, -0.171090007, -0.0888950005, -0.0162439998
   2449, -0.170981005, -0.089383997, -0.0132860001
   2450, -0.170894995, -0.0897810012, -0.0103139998
   2451, -0.170810997, -0.0900809988, -0.00733100018
   2452, -0.170711994, -0.0902760029, -0.00433900021
   2453,     -0.17058, -0.0903619975, -0.00134199997
   2454, -0.170451999, -0.0903500021, 0.00165600004
   2455, -0.170353994, -0.0902480036, 0.00465299981
   2456, -0.170270994, -0.0900510028,     0.007644
   2457, -0.170183003, -0.0897530019, 0.0106279999
   2458, -0.170071006, -0.0893490016, 0.0135989999
   2459, -0.169931993, -0.088839002, 0.0165539999
   2460, -0.169817999, -0.0882380009, 0.0194910001
   2461, -0.169729993, -0.0875480026, 0.0224079993
   2462, -0.169646993, -0.0867640004, 0.0253020003
   2463,    -0.169551, -0.085878998,     0.028167
   2464, -0.169423997, -0.0848909989, 0.0309980009
   2465, -0.169291005, -0.0838090032, 0.0337940007
   2466, -0.169190004, -0.0826430023, 0.0365560018
   2467, -0.169106007, -0.0813909993, 0.0392800011
   2468, -0.169019997, -0.0800480023, 0.0419620015
   2469, -0.168911994, -0.0786119998, 0.0445929989
   2470, -0.168773994, -0.0770810023, 0.0471710004
   2471, -0.168656006, -0.0754700005, 0.0496999994
   2472, -0.168565005, -0.0737840012, 0.0521790013
   2473, -0.168482006, -0.0720179975, 0.0546020009
   2474, -0.168389007, -0.0701700002, 0.0569630004
   2475, -0.168266997, -0.0682379976, 0.0592559986
   2476, -0.168130994, -0.0662280023,  0.061480999
   2477,    -0.168026, -0.0641520023, 0.0636439994
   2478, -0.167941004, -0.0620100014, 0.0657420009
   2479, -0.167857006, -0.0597990006, 0.0677670017
   2480, -0.167752996,    -0.057519, 0.0697140023
   2481, -0.167616993, -0.0551690012, 0.0715769976
   2482, -0.167493999, -0.0527609996, 0.0733629987
   2483, -0.167400002, -0.0503010005, 0.0750750005
   2484, -0.167318001, -0.0477860011, 0.0767090023
   2485,    -0.167227, -0.0452179983, 0.0782560036
   2486, -0.167109996, -0.0425949991, 0.0797099993
   2487, -0.166971996, -0.0399230011, 0.0810699984
   2488, -0.166862994, -0.0372119993, 0.0823479965
   2489, -0.166776001, -0.0344620012, 0.0835430026
   2490, -0.166693002, -0.0316740014, 0.0846460015
   2491,    -0.166593, -0.0288490001, 0.0856520012
   2492, -0.166461006,     -0.02599, 0.0865539983
   2493, -0.166333005, -0.0231030006, 0.0873619989
   2494, -0.166235998, -0.0201929994,  0.088082999
   2495, -0.166152999, -0.0172610004,  0.088711001
   2496, -0.166065007, -0.0143100005, 0.0892399997
   2497, -0.165951997,    -0.011341, 0.0896639973
   2498, -0.165812999, -0.00836000033, 0.0899799988
   2499, -0.165700004, -0.00536999991, 0.0902059972
   2500, -0.165610999, -0.00237499992, 0.0903389975
   2501, -0.165528998, 0.000623000029, 0.0903759971
   2502, -0.165432006, 0.0036210001, 0.0903080031
   2503, -0.165304005, 0.00661400007, 0.0901309997
   2504, -0.165171996, 0.00959900022,  0.089854002
   2505, -0.165071994, 0.0125749996, 0.0894879997
   2506, -0.164987996, 0.0155370003, 0.0890280008
   2507, -0.164901003, 0.0184829999,  0.088469997
   2508,    -0.164793, 0.0214079991, 0.0878069997
   2509,    -0.164655, 0.0243059993, 0.0870390013
   2510, -0.164536998, 0.0271790009, 0.0861809999
   2511, -0.164446995, 0.0300239995,  0.085235998
   2512, -0.164363995, 0.0328369997, 0.0842000023
   2513, -0.164270997, 0.0356139988, 0.0830679983
   2514, -0.164148003, 0.0383480005, 0.0818360001
   2515,    -0.164012, 0.0410370007, 0.0805109963
   2516, -0.163908005, 0.0436850004, 0.0791049972
   2517, -0.163822994, 0.0462879986, 0.0776180029
   2518, -0.163737997, 0.0488409996, 0.0760459974
   2519, -0.163634002,     0.051337, 0.0743839964
   2520, -0.163497999, 0.0537710004, 0.0726329982
   2521, -0.163375005, 0.0561470017, 0.0708049983
   2522, -0.163282007, 0.0584670007, 0.0689060017
   2523, -0.163198993, 0.0607260019,  0.066933997
   2524, -0.163109004, 0.0629160032, 0.0648859963
   2525, -0.162991002, 0.0650309995, 0.0627610013
   2526, -0.162853003, 0.0670699999, 0.0605619997
   2527, -0.162744001, 0.0690409988, 0.0583040006
   2528, -0.162658006, 0.0709419996,     0.055985
   2529, -0.162573993, 0.0727650002, 0.0536050014
   2530, -0.162474006, 0.0745050013, 0.0511629991
   2531, -0.162341997, 0.0761540011, 0.0486590005
   2532, -0.162213996, 0.0777200013, 0.0461019985
   2533, -0.162117004, 0.0792089999, 0.0434999987
   2534, -0.162034005, 0.0806149989, 0.0408519991
   2535, -0.161945999, 0.0819310024, 0.0381570011
   2536, -0.161833003,  0.083149001, 0.0354180001
   2537, -0.161694005, 0.0842690021, 0.0326360017
   2538, -0.161580995, 0.0853030011, 0.0298219994
   2539, -0.161493003, 0.0862499997, 0.0269779991
   2540, -0.161410004, 0.0871040002, 0.0241039991
   2541, -0.161312997, 0.0878589973, 0.0212019999
   2542, -0.161184996, 0.0885069966, 0.0182739999
   2543, -0.161053002, 0.0890560001, 0.0153270001
   2544,    -0.160953, 0.0895169973, 0.0123650003
   2545, -0.160869002, 0.0898849964, 0.00938900001
   2546, -0.160782993, 0.0901530012, 0.00640300009
   2547, -0.160675004, 0.0903149992, 0.00340900011
   2548, -0.160536006, 0.0903680027, 0.000410999986
   2549, -0.160419002, 0.0903280005, -0.00258699991
   2550, -0.160328001, 0.0901969969, -0.00558200013
   2551, -0.160245001, 0.0899690017, -0.00857200008
   2552, -0.160152003, 0.0896390006, -0.0115520004
   2553, -0.160027996, 0.0892010033, -0.0145180002
   2554, -0.159893006, 0.0886619985, -0.0174679998
   2555, -0.159788996, 0.0880339965, -0.0203990005
   2556,    -0.159704, 0.0873150006, -0.0233100001
   2557, -0.159620002, 0.0864999965, -0.0261950009
   2558, -0.159514993, 0.0855839998,     -0.02905
   2559, -0.159379005, 0.0845640004, -0.0318700001
   2560, -0.159256995, 0.0834560022, -0.034655001
   2561, -0.159162998, 0.0822630003, -0.0374060012
   2562, -0.159080997, 0.0809839964, -0.0401180014
   2563, -0.158989996, 0.0796130002, -0.0427840017
   2564, -0.158871993, 0.0781460032, -0.0454000011
   2565, -0.158733994, 0.0765890032, -0.0479619987
   2566, -0.158626005, 0.0749550015, -0.0504750013
   2567, -0.158538997,  0.073243998, -0.052937001
   2568, -0.158455998, 0.0714529976,    -0.055342
   2569, -0.158354998, 0.0695789978, -0.0576829985
   2570, -0.158223003, 0.0676210001, -0.0599539988
   2571, -0.158095002, 0.0655900016, -0.0621590018
   2572, -0.157998994, 0.0634939969, -0.0643030033
   2573, -0.157915995, 0.0613310002, -0.0663790032
   2574, -0.157827005, 0.0590989999, -0.0683809966
   2575, -0.157713994, 0.0567970015, -0.0703020021
   2576, -0.157574996, 0.0544270016, -0.0721390024
   2577, -0.157462001, 0.0520029999, -0.0739030018
   2578, -0.157373995, 0.0495259985, -0.0755909979
   2579, -0.157290995, 0.0469949991, -0.0771989971
   2580, -0.157195002, 0.0444089994, -0.0787179992
   2581, -0.157066002, 0.0417709984, -0.0801410004
   2582, -0.156933993, 0.0390859991, -0.0814749971
   2583, -0.156835005, 0.0363619998, -0.0827289969
   2584, -0.156751007, 0.0335999988, -0.0838960037
   2585, -0.156663999, 0.0308010001, -0.0849699974
   2586, -0.156555995, 0.0279649999, -0.0859439969
   2587, -0.156416997, 0.0250959992, -0.0868140012
   2588, -0.156299993,     0.022202, -0.0875950009
   2589, -0.156209007, 0.0192850009, -0.0882880017
   2590, -0.156127006, 0.0163470004, -0.0888860002
   2591, -0.156032994,      0.01339, -0.0893829986
   2592,     -0.15591, 0.0104170004, -0.0897729993
   2593, -0.155773997, 0.00743199978, -0.0900600031
   2594,    -0.155671, 0.00444100006, -0.0902569965
   2595, -0.155586004, 0.00144400005, -0.0903609991
   2596, -0.155500993, -0.00155399996, -0.0903659984
   2597,    -0.155396, -0.00455099996, -0.0902649984
   2598, -0.155259997, -0.00754200015, -0.0900549963
   2599, -0.155138001,    -0.010524, -0.0897499993
   2600, -0.155045003, -0.0134960003, -0.0893549994
   2601, -0.154962003,    -0.016454, -0.0888660029
   2602, -0.154871002, -0.0193939991, -0.0882750005
   2603,    -0.154753, -0.0223099999, -0.0875800028
   2604,    -0.154615, -0.0252010003, -0.086782001
   2605, -0.154506996, -0.0280649997, -0.0858969986
   2606, -0.154421002, -0.0309009999, -0.0849250033
   2607, -0.154337004, -0.0337040015, -0.0838589966
   2608, -0.154237002, -0.0364679992, -0.0826969966
   2609, -0.154103994, -0.0391869992, -0.0814339966
   2610, -0.153975993, -0.0418640003, -0.0800829977
   2611,     -0.15388, -0.0444980003, -0.0786530003
   2612, -0.153797001, -0.0470869988, -0.0771389976
   2613, -0.153708994, -0.0496230014, -0.0755390003
   2614, -0.153595001, -0.052099999, -0.0738499984
   2615, -0.153456002, -0.0545139983, -0.0720729977
   2616, -0.153344005, -0.0568739995, -0.0702230036
   2617, -0.153255999, -0.0591760017, -0.0683019981
   2618,    -0.153173, -0.0614130013, -0.0663060024
   2619, -0.153075993, -0.0635809973, -0.0642350018
   2620, -0.152946994, -0.0656720027, -0.0620849989
   2621, -0.152815998, -0.0676890016, -0.0598669983
   2622, -0.152715996, -0.0696389973, -0.0575900003
   2623, -0.152631998, -0.0715159997, -0.0552529991
   2624, -0.152546003, -0.073315002, -0.0528529994
   2625, -0.152437001, -0.0750269964, -0.0503919981
   2626, -0.152298003, -0.0766479969, -0.047869999
   2627,    -0.152181, -0.0781909972, -0.045299001
   2628, -0.152090997, -0.0796549991, -0.0426830016
   2629, -0.152008995, -0.0810329989, -0.0400200002
   2630, -0.151914999, -0.0823199973, -0.037312001
   2631, -0.151789993, -0.0835070014, -0.0345579982
   2632, -0.151655003, -0.0845979974, -0.0317660011
   2633, -0.151552007, -0.0856060013, -0.0289420001
   2634, -0.151466995, -0.0865250006, -0.0260889996
   2635, -0.151381999, -0.0873489976, -0.0232059993
   2636, -0.151277006, -0.0880710036, -0.0202949997
   2637, -0.151141003, -0.0886870027, -0.0173610002
   2638, -0.151019007, -0.0892089978, -0.0144090001
   2639, -0.150925994, -0.0896420032,    -0.011442
   2640, -0.150843993, -0.0899790004, -0.00846299995
   2641, -0.150751993, -0.0902149975, -0.00547399977
   2642, -0.150633007, -0.0903420001, -0.00247800001
   2643, -0.150496006, -0.0903650001, 0.000520000001
   2644, -0.150388002, -0.0902969986,     0.003517
   2645, -0.150301993, -0.0901369974, 0.00651099999
   2646, -0.150217995, -0.0898780003, 0.00949800014
   2647, -0.150117993, -0.0895150006, 0.0124749998
   2648, -0.149984002, -0.0890439972, 0.0154360002
   2649, -0.149857998, -0.0884760022, 0.0183799993
   2650, -0.149762005, -0.0878209993, 0.0213050004
   2651, -0.149679005, -0.0870719999, 0.0242079999
   2652, -0.149590001, -0.0862260014, 0.0270850006
   2653, -0.149476007, -0.085277997, 0.0299299993
   2654, -0.149336994, -0.0842289999, 0.0327380002
   2655, -0.149224997, -0.0830949992, 0.0355129987
   2656, -0.149137005, -0.0818760023, 0.0382529981
   2657, -0.149054006, -0.0805680007, 0.0409509987
   2658, -0.148956999, -0.0791679993, 0.0436020009
   2659,    -0.148828, -0.0776709989, 0.0461999997
   2660, -0.148697004, -0.0760890022, 0.0487469994
   2661, -0.148597002, -0.0744320005, 0.0512450002
   2662, -0.148514003, -0.0726969987, 0.0536900014
   2663, -0.148426995, -0.0708800033, 0.0560760014
   2664, -0.148317993, -0.0689800009, 0.0583960004
   2665, -0.148178995, -0.0669979975, 0.0606449991
   2666, -0.148062006, -0.0649470016, 0.0628309995
   2667, -0.147972003, -0.0628300011, 0.0649550036
   2668, -0.147890002, -0.0606460012, 0.0670080036
   2669, -0.147796005, -0.0583919995, 0.0689859986
   2670, -0.147670999, -0.0560679995, 0.0708800033
   2671, -0.147535995, -0.053679999, 0.0726940036
   2672, -0.147432998, -0.0512400009, 0.0744350031
   2673,    -0.147349, -0.048746001, 0.0760990009
   2674, -0.147264004, -0.0461979993, 0.0776799992
   2675, -0.147157997, -0.0435959995, 0.0791700035
   2676, -0.147021994,    -0.040941, 0.0805639997
   2677, -0.146899998, -0.0382440016, 0.0818729997
   2678, -0.146807998, -0.0355090015, 0.0830999985
   2679, -0.146724999, -0.0327350013, 0.0842389986
   2680, -0.146633998, -0.0299239997, 0.0852829963
   2681, -0.146513999, -0.0270780008,  0.086225003
   2682, -0.146376997, -0.0241999999, 0.0870660022
   2683, -0.146270007, -0.0212980006, 0.0878200009
   2684, -0.146183997,    -0.018375, 0.0884839967
   2685,      -0.1461, -0.0154309999, 0.0890519992
   2686, -0.145998999, -0.0124679999,  0.089515999
   2687, -0.145864993, -0.00949100032, 0.0898720026
   2688, -0.145739004, -0.00650400016, 0.0901309997
   2689, -0.145642996, -0.00351099996, 0.0903000012
   2690, -0.145559996, -0.000514000014, 0.0903740004
   2691, -0.145471007, 0.00248500006, 0.0903460011
   2692, -0.145356998, 0.00547999982, 0.0902109966
   2693,    -0.145218, 0.00846900046, 0.0899700001
   2694, -0.145107001, 0.0114479996, 0.0896369964
   2695, -0.145018995, 0.0144159999, 0.0892139971
   2696, -0.144935995, 0.0173690002, 0.0886930004
   2697, -0.144838005, 0.0203019995, 0.0880710036
   2698, -0.144709006, 0.0232100002, 0.0873420015
   2699, -0.144577995, 0.0260930005, 0.0865160003
   2700, -0.144479007, 0.0289489999, 0.0856050029
   2701, -0.144394994, 0.0317750014, 0.0846040025
   2702, -0.144308001, 0.0345660001, 0.0835089982
   2703, -0.144198999, 0.0373170003, 0.0823149979
   2704, -0.144060001, 0.0400220007, 0.0810230002
   2705, -0.143943995, 0.0426860005,  0.079648003
   2706, -0.143854007, 0.0453069992, 0.0781920031
   2707, -0.143770993, 0.0478800014, 0.0766519979
   2708, -0.143676996, 0.0503979996, 0.0750249997
   2709, -0.143551007, 0.0528559983, 0.0733070001
   2710, -0.143416002, 0.0552529991, 0.0715060011
   2711, -0.143314004, 0.0575949997,  0.069633998
   2712, -0.143230006, 0.0598770007, 0.0676899999
   2713, -0.143144995, 0.0620939992, 0.0656720027
   2714,    -0.143041, 0.0642390028, 0.0635759979
   2715, -0.142905995, 0.0663060024,  0.061404001
   2716, -0.142784998, 0.0683019981, 0.0591670014
   2717, -0.142691001, 0.0702299997, 0.0568710007
   2718, -0.142607003, 0.0720840022, 0.0545139983
   2719, -0.142511994, 0.0738549978, 0.0520949997
   2720, -0.142388999,  0.075538002, 0.0496140011
   2721, -0.142249003, 0.0771329999, 0.0470749997
   2722, -0.142142996, 0.0786520019, 0.0444910005
   2723, -0.142061993, 0.0800909996, 0.0418599993
   2724, -0.141984999, 0.0814440027, 0.0391849987
   2725, -0.141891003, 0.0827020034, 0.0364629999
   2726, -0.141765997, 0.0838610008, 0.0336970016
   2727, -0.141641006, 0.0849270001, 0.0308950003
   2728, -0.141536996, 0.0859050006, 0.0280610006
   2729, -0.141441002, 0.0867919996, 0.0251969993
   2730, -0.141335994, 0.0875800028, 0.0223040003
   2731, -0.141206995, 0.0882640034, 0.0193850007
   2732, -0.141063005, 0.0888469964, 0.0164439995
   2733, -0.140966997, 0.0893459991, 0.0134880003
   2734, -0.140902996, 0.0897570029, 0.0105180005
   2735, -0.140841007, 0.0900710002, 0.00753600011
   2736, -0.140746996, 0.0902749971, 0.00454499992
   2737, -0.141830996, 0.0907210037, 0.00155299995
   2738, -0.146005005, 0.0915659964, -0.00146900001
   2739, -0.147356004, 0.0916289985, -0.00449599978
   2740, -0.147602007, 0.0914779976, -0.00748899998
   2741, -0.147308007, 0.0912040025, -0.0104280002
   2742, -0.146657005, 0.0908280015, -0.0132990004
   2743, -0.145724997, 0.0903590024, -0.0160859991
   2744, -0.144553006, 0.0897990018, -0.0187730007
   2745, -0.143169999, 0.0891550034, -0.0213459991
   2746, -0.141592994, 0.0884279981, -0.0237910002
   2747, -0.139840007, 0.0876249969, -0.0260949992
   2748, -0.137924999, 0.0867479965, -0.0282439999
   2749, -0.135861993, 0.0858030021, -0.0302269999
   2750, -0.133664995, 0.0847949982, -0.0320339985
   2751, -0.131347999, 0.0837289989, -0.0336540006
   2752, -0.128925994, 0.0826120004, -0.0350780003
   2753, -0.126412004, 0.0814480036, -0.0362999998
   2754, -0.123820998, 0.0802450031, -0.0373109989
   2755, -0.121168002, 0.0790100023, -0.0381070003
   2756,    -0.118469, 0.0777470022, -0.038683001
   2757, -0.115736999, 0.0764660016, -0.0390359983
   2758, -0.112989999, 0.0751710013, -0.0391650014
   2759, -0.110241003, 0.0738710016, -0.0390679985
   2760,    -0.107492, 0.0725649968, -0.0387419984
   2761, -0.105155997, 0.0714510009, -0.038288001
   2762, -0.103367999, 0.0706060007, -0.0378409997
   2763, -0.101604998, 0.0697730035, -0.0373939984
   2764, -0.099841997, 0.0689409971, -0.0369479991
   2765, -0.0980790034, 0.0681079999, -0.0365019999
   2766, -0.0963160023,  0.067276001, -0.0360560007
   2767, -0.0945530012, 0.0664440021, -0.0356100015
   2768, -0.0927900001, 0.0656109974, -0.0351639986
   2769, -0.0910269991, 0.0647789985, -0.0347179994
   2770, -0.089263998, 0.0639460012, -0.0342710018
   2771, -0.0875009969, 0.0631140023, -0.0338249989
   2772, -0.0857380033, 0.0622810014, -0.0333789997
   2773, -0.0839750022, 0.0614489987, -0.0329330005
   2774, -0.0822120011, 0.0606160015, -0.0324870013
   2775,    -0.080449, 0.0597839989, -0.0320409983
   2776, -0.0786859989, 0.0589510016, -0.0315949991
   2777, -0.0769229978,  0.058118999, -0.0311479997
   2778, -0.0751599967, 0.0572870001, -0.0307020005
   2779, -0.0733980015, 0.0564539991, -0.0302559994
   2780, -0.0716350004, 0.0556220002, -0.0298100002
   2781, -0.0698719993, 0.0547889993, -0.0293639991
   2782, -0.0681089982, 0.0539570004, -0.0289179999
   2783, -0.0663459972, 0.0531239994, -0.0284710005
   2784, -0.0645830035, 0.0522920005, -0.0280249994
   2785, -0.0628200024, 0.0514589995, -0.0275790002
   2786, -0.0610570014, 0.0506270006, -0.0271329992
   2787, -0.0592940003, 0.0497939996, -0.0266869999
   2788, -0.0575309992, 0.0489620008, -0.0262410007
   2789, -0.0557680018, 0.0481289998, -0.0257949997
   2790, -0.0540050007, 0.0472970009, -0.0253480002
   2791, -0.0522419997, 0.0464649983, -0.0249019992
   2792, -0.0504789986,  0.045632001,    -0.024456
   2793, -0.0487160012, 0.0447999984, -0.0240100008
   2794, -0.0469530001, 0.0439670011, -0.0235639997
   2795, -0.045189999, 0.0431349985, -0.0231180005
   2796, -0.0434280001, 0.0423020013, -0.0226719994
   2797, -0.041664999, 0.0414699987,    -0.022225
   2798, -0.0399020016, 0.0406370014, -0.0217790008
   2799, -0.0381390005, 0.0398049988, -0.0213329997
   2800, -0.0363759995, 0.0389720015, -0.0208870005
   2801, -0.0346129984, 0.0381399989, -0.0204409994
   2802, -0.032850001,     0.037308, -0.0199950002
   2803, -0.0310869999,  0.036474999, -0.0195489991
   2804, -0.0293240007, 0.0356430002, -0.0191019997
   2805, -0.0275609996, 0.0348099992, -0.0186560005
   2806, -0.0258070007, 0.0339820012, -0.0182119999
   2807, -0.0244399998, 0.0333339982, -0.0178650003
   2808, -0.0233449992, 0.0328250006, -0.0175930001
   2809, -0.0222369991, 0.0323409997, -0.0173330009
   2810, -0.0211159997, 0.0318799987, -0.0170859993
   2811, -0.0199829992, 0.0314429998, -0.0168510005
   2812, -0.0188379996, 0.0310299993, -0.0166299995
   2813, -0.0176819991, 0.0306419991, -0.0164219998
   2814, -0.0165149998, 0.0302779991, -0.0162269995
   2815, -0.0153400004, 0.0299389996, -0.0160460006
   2816, -0.0141550004, 0.0296260007, -0.0158779994
   2817, -0.0129620004, 0.0293370001, -0.0157229993
   2818, -0.0117610004, 0.0290740002, -0.0155819999
   2819, -0.0105539998, 0.0288369991, -0.0154550001
   2820, -0.00934000034, 0.0286250003, -0.0153419999
   2821, -0.00812099967, 0.0284400005, -0.0152420001
   2822, -0.00689700013, 0.0282799993, -0.0151559999
   2823, -0.00566999987, 0.0281460006, -0.0150849996
   2824, -0.0044379998, 0.0280390009, -0.0150269996
   2825, -0.00320499996, 0.0279580001, -0.0149839995
   2826, -0.0019739999, 0.0279029999, -0.0149539998
   2827, -0.000525999989, 0.0278750006, -0.0149389999
   2828, 0.00143199996, 0.00100000005,           0.
   2829, 0.00343200006, 0.00100000005,           0.
   2830, 0.00543199992, 0.00100000005,           0.
   2831, 0.00743199978, 0.00100000005,           0.
   2832, 0.00943200011, 0.00100000005,           0.
   2833, 0.0114320004, 0.00100000005,           0.
   2834, 0.0134319998, 0.00100000005,           0.
   2835, 0.0154320002, 0.00100000005,           0.
   2836, 0.0174320005, 0.00100000005,           0.
   2837, 0.0194320008, 0.00100000005,           0.
   2838, 0.0214319993, 0.00100000005,           0.
   2839, 0.0234319996, 0.00100000005,           0.
   2840, 0.0254319999, 0.00100000005,           0.
   2841, 0.0274320003, 0.00100000005,           0.
   2842, 0.0294320006, 0.00100000005,           0.
   2843, 0.0314319991, 0.00100000005,           0.
   2844, 0.0334319994, 0.00100000005,           0.
   2845, 0.0354319997, 0.00100000005,           0.
   2846,     0.037432, 0.00100000005,           0.
   2847, 0.0394320004, 0.00100000005,           0.
   2848, 0.0414320007, 0.00100000005,           0.
   2849,  0.043432001, 0.00100000005,           0.
   2850, 0.0454320014, 0.00100000005,           0.
   2851, 0.0474320017, 0.00100000005,           0.
   2852, 0.0494319983, 0.00100000005,           0.
   2853, 0.0514319986, 0.00100000005,           0.
   2854, 0.0534319989, 0.00100000005,           0.
   2855, 0.0554319993, 0.00100000005,           0.
   2856, 0.0574319996, 0.00100000005,           0.
   2857, 0.0594319999, 0.00100000005,           0.
   2858, 0.0614320002, 0.00100000005,           0.
   2859, 0.0634320006, 0.00100000005,           0.
   2860, 0.0654319972, 0.00100000005,           0.
   2861, 0.0674320012, 0.00100000005,           0.
   2862, 0.0694319978, 0.00100000005,           0.
   2863, 0.0714320019, 0.00100000005,           0.
   2864, 0.0734319985, 0.00100000005,           0.
   2865, 0.0754320025, 0.00100000005,           0.
   2866, 0.0774319991, 0.00100000005,           0.
   2867, 0.0794320032, 0.00100000005,           0.
   2868, 0.0814319998, 0.00100000005,           0.
   2869, 0.0834319964, 0.00100000005,           0.
   2870, 0.0854320005, 0.00100000005,           0.
   2871, 0.0874319971, 0.00100000005,           0.
   2872, 0.0894320011, 0.00100000005,           0.
   2873, 0.0914319977, 0.00100000005,           0.
   2874, 0.0934320018, 0.00100000005,           0.
   2875, 0.0954319984, 0.00100000005,           0.
   2876, 0.0974320024, 0.00100000005,           0.
   2877,  0.099431999, 0.00100000005,           0.
   2878,  0.101432003, 0.00100000005,           0.
   2879,     0.103432, 0.00100000005,           0.
   2880,  0.105431996, 0.00100000005,           0.
   2881,     0.107432, 0.00100000005,           0.
   2882,  0.109431997, 0.00100000005,           0.
   2883,  0.111432001, 0.00100000005,           0.
   2884,  0.113431998, 0.00100000005,           0.
   2885,  0.115432002, 0.00100000005,           0.
   2886,  0.117431998, 0.00100000005,           0.
   2887,  0.119432002, 0.00100000005,           0.
   2888,  0.121431999, 0.00100000005,           0.
   2889,  0.123432003, 0.00100000005,           0.
   2890,     0.125432, 0.00100000005,           0.
   2891,  0.127432004, 0.00100000005,           0.
   2892,  0.129431993, 0.00100000005,           0.
   2893,  0.131431997, 0.00100000005,           0.
   2894,  0.133432001, 0.00100000005,           0.
   2895,  0.135432005, 0.00100000005,           0.
   2896,  0.137431994, 0.00100000005,           0.
   2897,  0.139431998, 0.00100000005,           0.
   2898,  0.141432002, 0.00100000005,           0.
   2899,  0.143432006, 0.00100000005,           0.
   2900,  0.145431995, 0.00100000005,           0.
   2901,  0.147431999, 0.00100000005,           0.
   2902,  0.149432003, 0.00100000005,           0.
   2903,  0.151431993, 0.00100000005,           0.
   2904,  0.153431997, 0.00100000005,           0.
   2905,  0.155432001, 0.00100000005,           0.
   2906,  0.157432005, 0.00100000005,           0.
   2907,  0.159431994, 0.00100000005,           0.
   2908,  0.161431998, 0.00100000005,           0.
   2909,  0.163432002, 0.00100000005,           0.
   2910,  0.165432006, 0.00100000005,           0.
   2911,  0.167431995, 0.00100000005,           0.
   2912,  0.169431999, 0.00100000005,           0.
   2913,  0.171432003, 0.00100000005,           0.
   2914,  0.173432007, 0.00100000005,           0.
   2915,  0.175431997, 0.00100000005,           0.
   2916,  0.177432001, 0.00100000005,           0.
   2917,  0.179432005, 0.00100000005,           0.
   2918,  0.181431994, 0.00100000005,           0.
   2919,  0.183431998, 0.00100000005,           0.
   2920,  0.185432002, 0.00100000005,           0.
   2921,  0.187432006, 0.00100000005,           0.
   2922,  0.189431995, 0.00100000005,           0.
   2923,  0.191431999, 0.00100000005,           0.
   2924,  0.193432003, 0.00100000005,           0.
   2925,  0.195432007, 0.00100000005,           0.
   2926,  0.197431996, 0.00100000005,           0.
   2927,  0.199432001, 0.00100000005,           0.
   2928,  0.201432005, 0.00100000005,           0.
   2929,  0.203431994, 0.00100000005,           0.
   2930,  0.205431998, 0.00100000005,           0.
   2931,  0.207432002, 0.00100000005,           0.
   2932,  0.209432006, 0.00100000005,           0.
   2933,  0.211431995, 0.00100000005,           0.
   2934,  0.213431999, 0.00100000005,           0.
   2935,  0.215432003, 0.00100000005,           0.
   2936,  0.217432007, 0.00100000005,           0.
   2937,  0.219431996, 0.00100000005,           0.
   2938,     0.221432, 0.00100000005,           0.
   2939,  0.223432004, 0.00100000005,           0.
   2940,  0.225431994, 0.00100000005,           0.
   2941,  0.227431998, 0.00100000005,           0.
   2942,  0.229432002, 0.00100000005,           0.
   2943,  0.231432006, 0.00100000005,           0.
   2944,  0.233431995, 0.00100000005,           0.
   2945,  0.235431999, 0.00100000005,           0.
   2946,  0.237432003, 0.00100000005,           0.
   2947,  0.239432007, 0.00100000005,           0.
   2948,  0.241431996, 0.00100000005,           0.
   2949,     0.243432, 0.00100000005,           0.
   2950,  0.245432004, 0.00100000005,           0.
   2951,  0.247431993, 0.00100000005,           0.
   2952,  0.249431998, 0.00100000005,           0.
   2953,  0.251432002, 0.00100000005,           0.
   2954,  0.253432006, 0.00100000005,           0.
   2955,   0.25543201, 0.00100000005,           0.
   2956,  0.257432014, 0.00100000005,           0.
   2957,  0.259431988, 0.00100000005,           0.
   2958,  0.261431992, 0.00100000005,           0.
   2959,  0.263431996, 0.00100000005,           0.
   2960,     0.265432, 0.00100000005,           0.
   2961,  0.267432004, 0.00100000005,           0.
   2962,  0.269432008, 0.00100000005,           0.
   2963,  0.271432012, 0.00100000005,           0.
   2964,  0.273431987, 0.00100000005,           0.
   2965,  0.275431991, 0.00100000005,           0.
   2966,  0.277431995, 0.00100000005,           0.
   2967,  0.279431999, 0.00100000005,           0.
   2968,  0.281432003, 0.00100000005,           0.
*Element, type=B32
	1,	1,	991,	2,	1980
	2,	2,	992,	3,	1981
	3,	3,	993,	4,	1982
	4,	4,	994,	5,	1983
	5,	5,	995,	6,	1984
	6,	6,	996,	7,	1985
	7,	7,	997,	8,	1986
	8,	8,	998,	9,	1987
	9,	9,	999,	10,	1988
	10,	10,	1000,	11,	1989
	11,	11,	1001,	12,	1990
	12,	12,	1002,	13,	1991
	13,	13,	1003,	14,	1992
	14,	14,	1004,	15,	1993
	15,	15,	1005,	16,	1994
	16,	16,	1006,	17,	1995
	17,	17,	1007,	18,	1996
	18,	18,	1008,	19,	1997
	19,	19,	1009,	20,	1998
	20,	20,	1010,	21,	1999
	21,	21,	1011,	22,	2000
	22,	22,	1012,	23,	2001
	23,	23,	1013,	24,	2002
	24,	24,	1014,	25,	2003
	25,	25,	1015,	26,	2004
	26,	26,	1016,	27,	2005
	27,	27,	1017,	28,	2006
	28,	28,	1018,	29,	2007
	29,	29,	1019,	30,	2008
	30,	30,	1020,	31,	2009
	31,	31,	1021,	32,	2010
	32,	32,	1022,	33,	2011
	33,	33,	1023,	34,	2012
	34,	34,	1024,	35,	2013
	35,	35,	1025,	36,	2014
	36,	36,	1026,	37,	2015
	37,	37,	1027,	38,	2016
	38,	38,	1028,	39,	2017
	39,	39,	1029,	40,	2018
	40,	40,	1030,	41,	2019
	41,	41,	1031,	42,	2020
	42,	42,	1032,	43,	2021
	43,	43,	1033,	44,	2022
	44,	44,	1034,	45,	2023
	45,	45,	1035,	46,	2024
	46,	46,	1036,	47,	2025
	47,	47,	1037,	48,	2026
	48,	48,	1038,	49,	2027
	49,	49,	1039,	50,	2028
	50,	50,	1040,	51,	2029
	51,	51,	1041,	52,	2030
	52,	52,	1042,	53,	2031
	53,	53,	1043,	54,	2032
	54,	54,	1044,	55,	2033
	55,	55,	1045,	56,	2034
	56,	56,	1046,	57,	2035
	57,	57,	1047,	58,	2036
	58,	58,	1048,	59,	2037
	59,	59,	1049,	60,	2038
	60,	60,	1050,	61,	2039
	61,	61,	1051,	62,	2040
	62,	62,	1052,	63,	2041
	63,	63,	1053,	64,	2042
	64,	64,	1054,	65,	2043
	65,	65,	1055,	66,	2044
	66,	66,	1056,	67,	2045
	67,	67,	1057,	68,	2046
	68,	68,	1058,	69,	2047
	69,	69,	1059,	70,	2048
	70,	70,	1060,	71,	2049
	71,	71,	1061,	72,	2050
	72,	72,	1062,	73,	2051
	73,	73,	1063,	74,	2052
	74,	74,	1064,	75,	2053
	75,	75,	1065,	76,	2054
	76,	76,	1066,	77,	2055
	77,	77,	1067,	78,	2056
	78,	78,	1068,	79,	2057
	79,	79,	1069,	80,	2058
	80,	80,	1070,	81,	2059
	81,	81,	1071,	82,	2060
	82,	82,	1072,	83,	2061
	83,	83,	1073,	84,	2062
	84,	84,	1074,	85,	2063
	85,	85,	1075,	86,	2064
	86,	86,	1076,	87,	2065
	87,	87,	1077,	88,	2066
	88,	88,	1078,	89,	2067
	89,	89,	1079,	90,	2068
	90,	90,	1080,	91,	2069
	91,	91,	1081,	92,	2070
	92,	92,	1082,	93,	2071
	93,	93,	1083,	94,	2072
	94,	94,	1084,	95,	2073
	95,	95,	1085,	96,	2074
	96,	96,	1086,	97,	2075
	97,	97,	1087,	98,	2076
	98,	98,	1088,	99,	2077
	99,	99,	1089,	100,	2078
	100,	100,	1090,	101,	2079
	101,	101,	1091,	102,	2080
	102,	102,	1092,	103,	2081
	103,	103,	1093,	104,	2082
	104,	104,	1094,	105,	2083
	105,	105,	1095,	106,	2084
	106,	106,	1096,	107,	2085
	107,	107,	1097,	108,	2086
	108,	108,	1098,	109,	2087
	109,	109,	1099,	110,	2088
	110,	110,	1100,	111,	2089
	111,	111,	1101,	112,	2090
	112,	112,	1102,	113,	2091
	113,	113,	1103,	114,	2092
	114,	114,	1104,	115,	2093
	115,	115,	1105,	116,	2094
	116,	116,	1106,	117,	2095
	117,	117,	1107,	118,	2096
	118,	118,	1108,	119,	2097
	119,	119,	1109,	120,	2098
	120,	120,	1110,	121,	2099
	121,	121,	1111,	122,	2100
	122,	122,	1112,	123,	2101
	123,	123,	1113,	124,	2102
	124,	124,	1114,	125,	2103
	125,	125,	1115,	126,	2104
	126,	126,	1116,	127,	2105
	127,	127,	1117,	128,	2106
	128,	128,	1118,	129,	2107
	129,	129,	1119,	130,	2108
	130,	130,	1120,	131,	2109
	131,	131,	1121,	132,	2110
	132,	132,	1122,	133,	2111
	133,	133,	1123,	134,	2112
	134,	134,	1124,	135,	2113
	135,	135,	1125,	136,	2114
	136,	136,	1126,	137,	2115
	137,	137,	1127,	138,	2116
	138,	138,	1128,	139,	2117
	139,	139,	1129,	140,	2118
	140,	140,	1130,	141,	2119
	141,	141,	1131,	142,	2120
	142,	142,	1132,	143,	2121
	143,	143,	1133,	144,	2122
	144,	144,	1134,	145,	2123
	145,	145,	1135,	146,	2124
	146,	146,	1136,	147,	2125
	147,	147,	1137,	148,	2126
	148,	148,	1138,	149,	2127
	149,	149,	1139,	150,	2128
	150,	150,	1140,	151,	2129
	151,	151,	1141,	152,	2130
	152,	152,	1142,	153,	2131
	153,	153,	1143,	154,	2132
	154,	154,	1144,	155,	2133
	155,	155,	1145,	156,	2134
	156,	156,	1146,	157,	2135
	157,	157,	1147,	158,	2136
	158,	158,	1148,	159,	2137
	159,	159,	1149,	160,	2138
	160,	160,	1150,	161,	2139
	161,	161,	1151,	162,	2140
	162,	162,	1152,	163,	2141
	163,	163,	1153,	164,	2142
	164,	164,	1154,	165,	2143
	165,	165,	1155,	166,	2144
	166,	166,	1156,	167,	2145
	167,	167,	1157,	168,	2146
	168,	168,	1158,	169,	2147
	169,	169,	1159,	170,	2148
	170,	170,	1160,	171,	2149
	171,	171,	1161,	172,	2150
	172,	172,	1162,	173,	2151
	173,	173,	1163,	174,	2152
	174,	174,	1164,	175,	2153
	175,	175,	1165,	176,	2154
	176,	176,	1166,	177,	2155
	177,	177,	1167,	178,	2156
	178,	178,	1168,	179,	2157
	179,	179,	1169,	180,	2158
	180,	180,	1170,	181,	2159
	181,	181,	1171,	182,	2160
	182,	182,	1172,	183,	2161
	183,	183,	1173,	184,	2162
	184,	184,	1174,	185,	2163
	185,	185,	1175,	186,	2164
	186,	186,	1176,	187,	2165
	187,	187,	1177,	188,	2166
	188,	188,	1178,	189,	2167
	189,	189,	1179,	190,	2168
	190,	190,	1180,	191,	2169
	191,	191,	1181,	192,	2170
	192,	192,	1182,	193,	2171
	193,	193,	1183,	194,	2172
	194,	194,	1184,	195,	2173
	195,	195,	1185,	196,	2174
	196,	196,	1186,	197,	2175
	197,	197,	1187,	198,	2176
	198,	198,	1188,	199,	2177
	199,	199,	1189,	200,	2178
	200,	200,	1190,	201,	2179
	201,	201,	1191,	202,	2180
	202,	202,	1192,	203,	2181
	203,	203,	1193,	204,	2182
	204,	204,	1194,	205,	2183
	205,	205,	1195,	206,	2184
	206,	206,	1196,	207,	2185
	207,	207,	1197,	208,	2186
	208,	208,	1198,	209,	2187
	209,	209,	1199,	210,	2188
	210,	210,	1200,	211,	2189
	211,	211,	1201,	212,	2190
	212,	212,	1202,	213,	2191
	213,	213,	1203,	214,	2192
	214,	214,	1204,	215,	2193
	215,	215,	1205,	216,	2194
	216,	216,	1206,	217,	2195
	217,	217,	1207,	218,	2196
	218,	218,	1208,	219,	2197
	219,	219,	1209,	220,	2198
	220,	220,	1210,	221,	2199
	221,	221,	1211,	222,	2200
	222,	222,	1212,	223,	2201
	223,	223,	1213,	224,	2202
	224,	224,	1214,	225,	2203
	225,	225,	1215,	226,	2204
	226,	226,	1216,	227,	2205
	227,	227,	1217,	228,	2206
	228,	228,	1218,	229,	2207
	229,	229,	1219,	230,	2208
	230,	230,	1220,	231,	2209
	231,	231,	1221,	232,	2210
	232,	232,	1222,	233,	2211
	233,	233,	1223,	234,	2212
	234,	234,	1224,	235,	2213
	235,	235,	1225,	236,	2214
	236,	236,	1226,	237,	2215
	237,	237,	1227,	238,	2216
	238,	238,	1228,	239,	2217
	239,	239,	1229,	240,	2218
	240,	240,	1230,	241,	2219
	241,	241,	1231,	242,	2220
	242,	242,	1232,	243,	2221
	243,	243,	1233,	244,	2222
	244,	244,	1234,	245,	2223
	245,	245,	1235,	246,	2224
	246,	246,	1236,	247,	2225
	247,	247,	1237,	248,	2226
	248,	248,	1238,	249,	2227
	249,	249,	1239,	250,	2228
	250,	250,	1240,	251,	2229
	251,	251,	1241,	252,	2230
	252,	252,	1242,	253,	2231
	253,	253,	1243,	254,	2232
	254,	254,	1244,	255,	2233
	255,	255,	1245,	256,	2234
	256,	256,	1246,	257,	2235
	257,	257,	1247,	258,	2236
	258,	258,	1248,	259,	2237
	259,	259,	1249,	260,	2238
	260,	260,	1250,	261,	2239
	261,	261,	1251,	262,	2240
	262,	262,	1252,	263,	2241
	263,	263,	1253,	264,	2242
	264,	264,	1254,	265,	2243
	265,	265,	1255,	266,	2244
	266,	266,	1256,	267,	2245
	267,	267,	1257,	268,	2246
	268,	268,	1258,	269,	2247
	269,	269,	1259,	270,	2248
	270,	270,	1260,	271,	2249
	271,	271,	1261,	272,	2250
	272,	272,	1262,	273,	2251
	273,	273,	1263,	274,	2252
	274,	274,	1264,	275,	2253
	275,	275,	1265,	276,	2254
	276,	276,	1266,	277,	2255
	277,	277,	1267,	278,	2256
	278,	278,	1268,	279,	2257
	279,	279,	1269,	280,	2258
	280,	280,	1270,	281,	2259
	281,	281,	1271,	282,	2260
	282,	282,	1272,	283,	2261
	283,	283,	1273,	284,	2262
	284,	284,	1274,	285,	2263
	285,	285,	1275,	286,	2264
	286,	286,	1276,	287,	2265
	287,	287,	1277,	288,	2266
	288,	288,	1278,	289,	2267
	289,	289,	1279,	290,	2268
	290,	290,	1280,	291,	2269
	291,	291,	1281,	292,	2270
	292,	292,	1282,	293,	2271
	293,	293,	1283,	294,	2272
	294,	294,	1284,	295,	2273
	295,	295,	1285,	296,	2274
	296,	296,	1286,	297,	2275
	297,	297,	1287,	298,	2276
	298,	298,	1288,	299,	2277
	299,	299,	1289,	300,	2278
	300,	300,	1290,	301,	2279
	301,	301,	1291,	302,	2280
	302,	302,	1292,	303,	2281
	303,	303,	1293,	304,	2282
	304,	304,	1294,	305,	2283
	305,	305,	1295,	306,	2284
	306,	306,	1296,	307,	2285
	307,	307,	1297,	308,	2286
	308,	308,	1298,	309,	2287
	309,	309,	1299,	310,	2288
	310,	310,	1300,	311,	2289
	311,	311,	1301,	312,	2290
	312,	312,	1302,	313,	2291
	313,	313,	1303,	314,	2292
	314,	314,	1304,	315,	2293
	315,	315,	1305,	316,	2294
	316,	316,	1306,	317,	2295
	317,	317,	1307,	318,	2296
	318,	318,	1308,	319,	2297
	319,	319,	1309,	320,	2298
	320,	320,	1310,	321,	2299
	321,	321,	1311,	322,	2300
	322,	322,	1312,	323,	2301
	323,	323,	1313,	324,	2302
	324,	324,	1314,	325,	2303
	325,	325,	1315,	326,	2304
	326,	326,	1316,	327,	2305
	327,	327,	1317,	328,	2306
	328,	328,	1318,	329,	2307
	329,	329,	1319,	330,	2308
	330,	330,	1320,	331,	2309
	331,	331,	1321,	332,	2310
	332,	332,	1322,	333,	2311
	333,	333,	1323,	334,	2312
	334,	334,	1324,	335,	2313
	335,	335,	1325,	336,	2314
	336,	336,	1326,	337,	2315
	337,	337,	1327,	338,	2316
	338,	338,	1328,	339,	2317
	339,	339,	1329,	340,	2318
	340,	340,	1330,	341,	2319
	341,	341,	1331,	342,	2320
	342,	342,	1332,	343,	2321
	343,	343,	1333,	344,	2322
	344,	344,	1334,	345,	2323
	345,	345,	1335,	346,	2324
	346,	346,	1336,	347,	2325
	347,	347,	1337,	348,	2326
	348,	348,	1338,	349,	2327
	349,	349,	1339,	350,	2328
	350,	350,	1340,	351,	2329
	351,	351,	1341,	352,	2330
	352,	352,	1342,	353,	2331
	353,	353,	1343,	354,	2332
	354,	354,	1344,	355,	2333
	355,	355,	1345,	356,	2334
	356,	356,	1346,	357,	2335
	357,	357,	1347,	358,	2336
	358,	358,	1348,	359,	2337
	359,	359,	1349,	360,	2338
	360,	360,	1350,	361,	2339
	361,	361,	1351,	362,	2340
	362,	362,	1352,	363,	2341
	363,	363,	1353,	364,	2342
	364,	364,	1354,	365,	2343
	365,	365,	1355,	366,	2344
	366,	366,	1356,	367,	2345
	367,	367,	1357,	368,	2346
	368,	368,	1358,	369,	2347
	369,	369,	1359,	370,	2348
	370,	370,	1360,	371,	2349
	371,	371,	1361,	372,	2350
	372,	372,	1362,	373,	2351
	373,	373,	1363,	374,	2352
	374,	374,	1364,	375,	2353
	375,	375,	1365,	376,	2354
	376,	376,	1366,	377,	2355
	377,	377,	1367,	378,	2356
	378,	378,	1368,	379,	2357
	379,	379,	1369,	380,	2358
	380,	380,	1370,	381,	2359
	381,	381,	1371,	382,	2360
	382,	382,	1372,	383,	2361
	383,	383,	1373,	384,	2362
	384,	384,	1374,	385,	2363
	385,	385,	1375,	386,	2364
	386,	386,	1376,	387,	2365
	387,	387,	1377,	388,	2366
	388,	388,	1378,	389,	2367
	389,	389,	1379,	390,	2368
	390,	390,	1380,	391,	2369
	391,	391,	1381,	392,	2370
	392,	392,	1382,	393,	2371
	393,	393,	1383,	394,	2372
	394,	394,	1384,	395,	2373
	395,	395,	1385,	396,	2374
	396,	396,	1386,	397,	2375
	397,	397,	1387,	398,	2376
	398,	398,	1388,	399,	2377
	399,	399,	1389,	400,	2378
	400,	400,	1390,	401,	2379
	401,	401,	1391,	402,	2380
	402,	402,	1392,	403,	2381
	403,	403,	1393,	404,	2382
	404,	404,	1394,	405,	2383
	405,	405,	1395,	406,	2384
	406,	406,	1396,	407,	2385
	407,	407,	1397,	408,	2386
	408,	408,	1398,	409,	2387
	409,	409,	1399,	410,	2388
	410,	410,	1400,	411,	2389
	411,	411,	1401,	412,	2390
	412,	412,	1402,	413,	2391
	413,	413,	1403,	414,	2392
	414,	414,	1404,	415,	2393
	415,	415,	1405,	416,	2394
	416,	416,	1406,	417,	2395
	417,	417,	1407,	418,	2396
	418,	418,	1408,	419,	2397
	419,	419,	1409,	420,	2398
	420,	420,	1410,	421,	2399
	421,	421,	1411,	422,	2400
	422,	422,	1412,	423,	2401
	423,	423,	1413,	424,	2402
	424,	424,	1414,	425,	2403
	425,	425,	1415,	426,	2404
	426,	426,	1416,	427,	2405
	427,	427,	1417,	428,	2406
	428,	428,	1418,	429,	2407
	429,	429,	1419,	430,	2408
	430,	430,	1420,	431,	2409
	431,	431,	1421,	432,	2410
	432,	432,	1422,	433,	2411
	433,	433,	1423,	434,	2412
	434,	434,	1424,	435,	2413
	435,	435,	1425,	436,	2414
	436,	436,	1426,	437,	2415
	437,	437,	1427,	438,	2416
	438,	438,	1428,	439,	2417
	439,	439,	1429,	440,	2418
	440,	440,	1430,	441,	2419
	441,	441,	1431,	442,	2420
	442,	442,	1432,	443,	2421
	443,	443,	1433,	444,	2422
	444,	444,	1434,	445,	2423
	445,	445,	1435,	446,	2424
	446,	446,	1436,	447,	2425
	447,	447,	1437,	448,	2426
	448,	448,	1438,	449,	2427
	449,	449,	1439,	450,	2428
	450,	450,	1440,	451,	2429
	451,	451,	1441,	452,	2430
	452,	452,	1442,	453,	2431
	453,	453,	1443,	454,	2432
	454,	454,	1444,	455,	2433
	455,	455,	1445,	456,	2434
	456,	456,	1446,	457,	2435
	457,	457,	1447,	458,	2436
	458,	458,	1448,	459,	2437
	459,	459,	1449,	460,	2438
	460,	460,	1450,	461,	2439
	461,	461,	1451,	462,	2440
	462,	462,	1452,	463,	2441
	463,	463,	1453,	464,	2442
	464,	464,	1454,	465,	2443
	465,	465,	1455,	466,	2444
	466,	466,	1456,	467,	2445
	467,	467,	1457,	468,	2446
	468,	468,	1458,	469,	2447
	469,	469,	1459,	470,	2448
	470,	470,	1460,	471,	2449
	471,	471,	1461,	472,	2450
	472,	472,	1462,	473,	2451
	473,	473,	1463,	474,	2452
	474,	474,	1464,	475,	2453
	475,	475,	1465,	476,	2454
	476,	476,	1466,	477,	2455
	477,	477,	1467,	478,	2456
	478,	478,	1468,	479,	2457
	479,	479,	1469,	480,	2458
	480,	480,	1470,	481,	2459
	481,	481,	1471,	482,	2460
	482,	482,	1472,	483,	2461
	483,	483,	1473,	484,	2462
	484,	484,	1474,	485,	2463
	485,	485,	1475,	486,	2464
	486,	486,	1476,	487,	2465
	487,	487,	1477,	488,	2466
	488,	488,	1478,	489,	2467
	489,	489,	1479,	490,	2468
	490,	490,	1480,	491,	2469
	491,	491,	1481,	492,	2470
	492,	492,	1482,	493,	2471
	493,	493,	1483,	494,	2472
	494,	494,	1484,	495,	2473
	495,	495,	1485,	496,	2474
	496,	496,	1486,	497,	2475
	497,	497,	1487,	498,	2476
	498,	498,	1488,	499,	2477
	499,	499,	1489,	500,	2478
	500,	500,	1490,	501,	2479
	501,	501,	1491,	502,	2480
	502,	502,	1492,	503,	2481
	503,	503,	1493,	504,	2482
	504,	504,	1494,	505,	2483
	505,	505,	1495,	506,	2484
	506,	506,	1496,	507,	2485
	507,	507,	1497,	508,	2486
	508,	508,	1498,	509,	2487
	509,	509,	1499,	510,	2488
	510,	510,	1500,	511,	2489
	511,	511,	1501,	512,	2490
	512,	512,	1502,	513,	2491
	513,	513,	1503,	514,	2492
	514,	514,	1504,	515,	2493
	515,	515,	1505,	516,	2494
	516,	516,	1506,	517,	2495
	517,	517,	1507,	518,	2496
	518,	518,	1508,	519,	2497
	519,	519,	1509,	520,	2498
	520,	520,	1510,	521,	2499
	521,	521,	1511,	522,	2500
	522,	522,	1512,	523,	2501
	523,	523,	1513,	524,	2502
	524,	524,	1514,	525,	2503
	525,	525,	1515,	526,	2504
	526,	526,	1516,	527,	2505
	527,	527,	1517,	528,	2506
	528,	528,	1518,	529,	2507
	529,	529,	1519,	530,	2508
	530,	530,	1520,	531,	2509
	531,	531,	1521,	532,	2510
	532,	532,	1522,	533,	2511
	533,	533,	1523,	534,	2512
	534,	534,	1524,	535,	2513
	535,	535,	1525,	536,	2514
	536,	536,	1526,	537,	2515
	537,	537,	1527,	538,	2516
	538,	538,	1528,	539,	2517
	539,	539,	1529,	540,	2518
	540,	540,	1530,	541,	2519
	541,	541,	1531,	542,	2520
	542,	542,	1532,	543,	2521
	543,	543,	1533,	544,	2522
	544,	544,	1534,	545,	2523
	545,	545,	1535,	546,	2524
	546,	546,	1536,	547,	2525
	547,	547,	1537,	548,	2526
	548,	548,	1538,	549,	2527
	549,	549,	1539,	550,	2528
	550,	550,	1540,	551,	2529
	551,	551,	1541,	552,	2530
	552,	552,	1542,	553,	2531
	553,	553,	1543,	554,	2532
	554,	554,	1544,	555,	2533
	555,	555,	1545,	556,	2534
	556,	556,	1546,	557,	2535
	557,	557,	1547,	558,	2536
	558,	558,	1548,	559,	2537
	559,	559,	1549,	560,	2538
	560,	560,	1550,	561,	2539
	561,	561,	1551,	562,	2540
	562,	562,	1552,	563,	2541
	563,	563,	1553,	564,	2542
	564,	564,	1554,	565,	2543
	565,	565,	1555,	566,	2544
	566,	566,	1556,	567,	2545
	567,	567,	1557,	568,	2546
	568,	568,	1558,	569,	2547
	569,	569,	1559,	570,	2548
	570,	570,	1560,	571,	2549
	571,	571,	1561,	572,	2550
	572,	572,	1562,	573,	2551
	573,	573,	1563,	574,	2552
	574,	574,	1564,	575,	2553
	575,	575,	1565,	576,	2554
	576,	576,	1566,	577,	2555
	577,	577,	1567,	578,	2556
	578,	578,	1568,	579,	2557
	579,	579,	1569,	580,	2558
	580,	580,	1570,	581,	2559
	581,	581,	1571,	582,	2560
	582,	582,	1572,	583,	2561
	583,	583,	1573,	584,	2562
	584,	584,	1574,	585,	2563
	585,	585,	1575,	586,	2564
	586,	586,	1576,	587,	2565
	587,	587,	1577,	588,	2566
	588,	588,	1578,	589,	2567
	589,	589,	1579,	590,	2568
	590,	590,	1580,	591,	2569
	591,	591,	1581,	592,	2570
	592,	592,	1582,	593,	2571
	593,	593,	1583,	594,	2572
	594,	594,	1584,	595,	2573
	595,	595,	1585,	596,	2574
	596,	596,	1586,	597,	2575
	597,	597,	1587,	598,	2576
	598,	598,	1588,	599,	2577
	599,	599,	1589,	600,	2578
	600,	600,	1590,	601,	2579
	601,	601,	1591,	602,	2580
	602,	602,	1592,	603,	2581
	603,	603,	1593,	604,	2582
	604,	604,	1594,	605,	2583
	605,	605,	1595,	606,	2584
	606,	606,	1596,	607,	2585
	607,	607,	1597,	608,	2586
	608,	608,	1598,	609,	2587
	609,	609,	1599,	610,	2588
	610,	610,	1600,	611,	2589
	611,	611,	1601,	612,	2590
	612,	612,	1602,	613,	2591
	613,	613,	1603,	614,	2592
	614,	614,	1604,	615,	2593
	615,	615,	1605,	616,	2594
	616,	616,	1606,	617,	2595
	617,	617,	1607,	618,	2596
	618,	618,	1608,	619,	2597
	619,	619,	1609,	620,	2598
	620,	620,	1610,	621,	2599
	621,	621,	1611,	622,	2600
	622,	622,	1612,	623,	2601
	623,	623,	1613,	624,	2602
	624,	624,	1614,	625,	2603
	625,	625,	1615,	626,	2604
	626,	626,	1616,	627,	2605
	627,	627,	1617,	628,	2606
	628,	628,	1618,	629,	2607
	629,	629,	1619,	630,	2608
	630,	630,	1620,	631,	2609
	631,	631,	1621,	632,	2610
	632,	632,	1622,	633,	2611
	633,	633,	1623,	634,	2612
	634,	634,	1624,	635,	2613
	635,	635,	1625,	636,	2614
	636,	636,	1626,	637,	2615
	637,	637,	1627,	638,	2616
	638,	638,	1628,	639,	2617
	639,	639,	1629,	640,	2618
	640,	640,	1630,	641,	2619
	641,	641,	1631,	642,	2620
	642,	642,	1632,	643,	2621
	643,	643,	1633,	644,	2622
	644,	644,	1634,	645,	2623
	645,	645,	1635,	646,	2624
	646,	646,	1636,	647,	2625
	647,	647,	1637,	648,	2626
	648,	648,	1638,	649,	2627
	649,	649,	1639,	650,	2628
	650,	650,	1640,	651,	2629
	651,	651,	1641,	652,	2630
	652,	652,	1642,	653,	2631
	653,	653,	1643,	654,	2632
	654,	654,	1644,	655,	2633
	655,	655,	1645,	656,	2634
	656,	656,	1646,	657,	2635
	657,	657,	1647,	658,	2636
	658,	658,	1648,	659,	2637
	659,	659,	1649,	660,	2638
	660,	660,	1650,	661,	2639
	661,	661,	1651,	662,	2640
	662,	662,	1652,	663,	2641
	663,	663,	1653,	664,	2642
	664,	664,	1654,	665,	2643
	665,	665,	1655,	666,	2644
	666,	666,	1656,	667,	2645
	667,	667,	1657,	668,	2646
	668,	668,	1658,	669,	2647
	669,	669,	1659,	670,	2648
	670,	670,	1660,	671,	2649
	671,	671,	1661,	672,	2650
	672,	672,	1662,	673,	2651
	673,	673,	1663,	674,	2652
	674,	674,	1664,	675,	2653
	675,	675,	1665,	676,	2654
	676,	676,	1666,	677,	2655
	677,	677,	1667,	678,	2656
	678,	678,	1668,	679,	2657
	679,	679,	1669,	680,	2658
	680,	680,	1670,	681,	2659
	681,	681,	1671,	682,	2660
	682,	682,	1672,	683,	2661
	683,	683,	1673,	684,	2662
	684,	684,	1674,	685,	2663
	685,	685,	1675,	686,	2664
	686,	686,	1676,	687,	2665
	687,	687,	1677,	688,	2666
	688,	688,	1678,	689,	2667
	689,	689,	1679,	690,	2668
	690,	690,	1680,	691,	2669
	691,	691,	1681,	692,	2670
	692,	692,	1682,	693,	2671
	693,	693,	1683,	694,	2672
	694,	694,	1684,	695,	2673
	695,	695,	1685,	696,	2674
	696,	696,	1686,	697,	2675
	697,	697,	1687,	698,	2676
	698,	698,	1688,	699,	2677
	699,	699,	1689,	700,	2678
	700,	700,	1690,	701,	2679
	701,	701,	1691,	702,	2680
	702,	702,	1692,	703,	2681
	703,	703,	1693,	704,	2682
	704,	704,	1694,	705,	2683
	705,	705,	1695,	706,	2684
	706,	706,	1696,	707,	2685
	707,	707,	1697,	708,	2686
	708,	708,	1698,	709,	2687
	709,	709,	1699,	710,	2688
	710,	710,	1700,	711,	2689
	711,	711,	1701,	712,	2690
	712,	712,	1702,	713,	2691
	713,	713,	1703,	714,	2692
	714,	714,	1704,	715,	2693
	715,	715,	1705,	716,	2694
	716,	716,	1706,	717,	2695
	717,	717,	1707,	718,	2696
	718,	718,	1708,	719,	2697
	719,	719,	1709,	720,	2698
	720,	720,	1710,	721,	2699
	721,	721,	1711,	722,	2700
	722,	722,	1712,	723,	2701
	723,	723,	1713,	724,	2702
	724,	724,	1714,	725,	2703
	725,	725,	1715,	726,	2704
	726,	726,	1716,	727,	2705
	727,	727,	1717,	728,	2706
	728,	728,	1718,	729,	2707
	729,	729,	1719,	730,	2708
	730,	730,	1720,	731,	2709
	731,	731,	1721,	732,	2710
	732,	732,	1722,	733,	2711
	733,	733,	1723,	734,	2712
	734,	734,	1724,	735,	2713
	735,	735,	1725,	736,	2714
	736,	736,	1726,	737,	2715
	737,	737,	1727,	738,	2716
	738,	738,	1728,	739,	2717
	739,	739,	1729,	740,	2718
	740,	740,	1730,	741,	2719
	741,	741,	1731,	742,	2720
	742,	742,	1732,	743,	2721
	743,	743,	1733,	744,	2722
	744,	744,	1734,	745,	2723
	745,	745,	1735,	746,	2724
	746,	746,	1736,	747,	2725
	747,	747,	1737,	748,	2726
	748,	748,	1738,	749,	2727
	749,	749,	1739,	750,	2728
	750,	750,	1740,	751,	2729
	751,	751,	1741,	752,	2730
	752,	752,	1742,	753,	2731
	753,	753,	1743,	754,	2732
	754,	754,	1744,	755,	2733
	755,	755,	1745,	756,	2734
	756,	756,	1746,	757,	2735
	757,	757,	1747,	758,	2736
	758,	758,	1748,	759,	2737
	759,	759,	1749,	760,	2738
	760,	760,	1750,	761,	2739
	761,	761,	1751,	762,	2740
	762,	762,	1752,	763,	2741
	763,	763,	1753,	764,	2742
	764,	764,	1754,	765,	2743
	765,	765,	1755,	766,	2744
	766,	766,	1756,	767,	2745
	767,	767,	1757,	768,	2746
	768,	768,	1758,	769,	2747
	769,	769,	1759,	770,	2748
	770,	770,	1760,	771,	2749
	771,	771,	1761,	772,	2750
	772,	772,	1762,	773,	2751
	773,	773,	1763,	774,	2752
	774,	774,	1764,	775,	2753
	775,	775,	1765,	776,	2754
	776,	776,	1766,	777,	2755
	777,	777,	1767,	778,	2756
	778,	778,	1768,	779,	2757
	779,	779,	1769,	780,	2758
	780,	780,	1770,	781,	2759
	781,	781,	1771,	782,	2760
	782,	782,	1772,	783,	2761
	783,	783,	1773,	784,	2762
	784,	784,	1774,	785,	2763
	785,	785,	1775,	786,	2764
	786,	786,	1776,	787,	2765
	787,	787,	1777,	788,	2766
	788,	788,	1778,	789,	2767
	789,	789,	1779,	790,	2768
	790,	790,	1780,	791,	2769
	791,	791,	1781,	792,	2770
	792,	792,	1782,	793,	2771
	793,	793,	1783,	794,	2772
	794,	794,	1784,	795,	2773
	795,	795,	1785,	796,	2774
	796,	796,	1786,	797,	2775
	797,	797,	1787,	798,	2776
	798,	798,	1788,	799,	2777
	799,	799,	1789,	800,	2778
	800,	800,	1790,	801,	2779
	801,	801,	1791,	802,	2780
	802,	802,	1792,	803,	2781
	803,	803,	1793,	804,	2782
	804,	804,	1794,	805,	2783
	805,	805,	1795,	806,	2784
	806,	806,	1796,	807,	2785
	807,	807,	1797,	808,	2786
	808,	808,	1798,	809,	2787
	809,	809,	1799,	810,	2788
	810,	810,	1800,	811,	2789
	811,	811,	1801,	812,	2790
	812,	812,	1802,	813,	2791
	813,	813,	1803,	814,	2792
	814,	814,	1804,	815,	2793
	815,	815,	1805,	816,	2794
	816,	816,	1806,	817,	2795
	817,	817,	1807,	818,	2796
	818,	818,	1808,	819,	2797
	819,	819,	1809,	820,	2798
	820,	820,	1810,	821,	2799
	821,	821,	1811,	822,	2800
	822,	822,	1812,	823,	2801
	823,	823,	1813,	824,	2802
	824,	824,	1814,	825,	2803
	825,	825,	1815,	826,	2804
	826,	826,	1816,	827,	2805
	827,	827,	1817,	828,	2806
	828,	828,	1818,	829,	2807
	829,	829,	1819,	830,	2808
	830,	830,	1820,	831,	2809
	831,	831,	1821,	832,	2810
	832,	832,	1822,	833,	2811
	833,	833,	1823,	834,	2812
	834,	834,	1824,	835,	2813
	835,	835,	1825,	836,	2814
	836,	836,	1826,	837,	2815
	837,	837,	1827,	838,	2816
	838,	838,	1828,	839,	2817
	839,	839,	1829,	840,	2818
	840,	840,	1830,	841,	2819
	841,	841,	1831,	842,	2820
	842,	842,	1832,	843,	2821
	843,	843,	1833,	844,	2822
	844,	844,	1834,	845,	2823
	845,	845,	1835,	846,	2824
	846,	846,	1836,	847,	2825
	847,	847,	1837,	848,	2826
	848,	848,	1838,	849,	2827
	849,	849,	1839,	850,	2828
	850,	850,	1840,	851,	2829
	851,	851,	1841,	852,	2830
	852,	852,	1842,	853,	2831
	853,	853,	1843,	854,	2832
	854,	854,	1844,	855,	2833
	855,	855,	1845,	856,	2834
	856,	856,	1846,	857,	2835
	857,	857,	1847,	858,	2836
	858,	858,	1848,	859,	2837
	859,	859,	1849,	860,	2838
	860,	860,	1850,	861,	2839
	861,	861,	1851,	862,	2840
	862,	862,	1852,	863,	2841
	863,	863,	1853,	864,	2842
	864,	864,	1854,	865,	2843
	865,	865,	1855,	866,	2844
	866,	866,	1856,	867,	2845
	867,	867,	1857,	868,	2846
	868,	868,	1858,	869,	2847
	869,	869,	1859,	870,	2848
	870,	870,	1860,	871,	2849
	871,	871,	1861,	872,	2850
	872,	872,	1862,	873,	2851
	873,	873,	1863,	874,	2852
	874,	874,	1864,	875,	2853
	875,	875,	1865,	876,	2854
	876,	876,	1866,	877,	2855
	877,	877,	1867,	878,	2856
	878,	878,	1868,	879,	2857
	879,	879,	1869,	880,	2858
	880,	880,	1870,	881,	2859
	881,	881,	1871,	882,	2860
	882,	882,	1872,	883,	2861
	883,	883,	1873,	884,	2862
	884,	884,	1874,	885,	2863
	885,	885,	1875,	886,	2864
	886,	886,	1876,	887,	2865
	887,	887,	1877,	888,	2866
	888,	888,	1878,	889,	2867
	889,	889,	1879,	890,	2868
	890,	890,	1880,	891,	2869
	891,	891,	1881,	892,	2870
	892,	892,	1882,	893,	2871
	893,	893,	1883,	894,	2872
	894,	894,	1884,	895,	2873
	895,	895,	1885,	896,	2874
	896,	896,	1886,	897,	2875
	897,	897,	1887,	898,	2876
	898,	898,	1888,	899,	2877
	899,	899,	1889,	900,	2878
	900,	900,	1890,	901,	2879
	901,	901,	1891,	902,	2880
	902,	902,	1892,	903,	2881
	903,	903,	1893,	904,	2882
	904,	904,	1894,	905,	2883
	905,	905,	1895,	906,	2884
	906,	906,	1896,	907,	2885
	907,	907,	1897,	908,	2886
	908,	908,	1898,	909,	2887
	909,	909,	1899,	910,	2888
	910,	910,	1900,	911,	2889
	911,	911,	1901,	912,	2890
	912,	912,	1902,	913,	2891
	913,	913,	1903,	914,	2892
	914,	914,	1904,	915,	2893
	915,	915,	1905,	916,	2894
	916,	916,	1906,	917,	2895
	917,	917,	1907,	918,	2896
	918,	918,	1908,	919,	2897
	919,	919,	1909,	920,	2898
	920,	920,	1910,	921,	2899
	921,	921,	1911,	922,	2900
	922,	922,	1912,	923,	2901
	923,	923,	1913,	924,	2902
	924,	924,	1914,	925,	2903
	925,	925,	1915,	926,	2904
	926,	926,	1916,	927,	2905
	927,	927,	1917,	928,	2906
	928,	928,	1918,	929,	2907
	929,	929,	1919,	930,	2908
	930,	930,	1920,	931,	2909
	931,	931,	1921,	932,	2910
	932,	932,	1922,	933,	2911
	933,	933,	1923,	934,	2912
	934,	934,	1924,	935,	2913
	935,	935,	1925,	936,	2914
	936,	936,	1926,	937,	2915
	937,	937,	1927,	938,	2916
	938,	938,	1928,	939,	2917
	939,	939,	1929,	940,	2918
	940,	940,	1930,	941,	2919
	941,	941,	1931,	942,	2920
	942,	942,	1932,	943,	2921
	943,	943,	1933,	944,	2922
	944,	944,	1934,	945,	2923
	945,	945,	1935,	946,	2924
	946,	946,	1936,	947,	2925
	947,	947,	1937,	948,	2926
	948,	948,	1938,	949,	2927
	949,	949,	1939,	950,	2928
	950,	950,	1940,	951,	2929
	951,	951,	1941,	952,	2930
	952,	952,	1942,	953,	2931
	953,	953,	1943,	954,	2932
	954,	954,	1944,	955,	2933
	955,	955,	1945,	956,	2934
	956,	956,	1946,	957,	2935
	957,	957,	1947,	958,	2936
	958,	958,	1948,	959,	2937
	959,	959,	1949,	960,	2938
	960,	960,	1950,	961,	2939
	961,	961,	1951,	962,	2940
	962,	962,	1952,	963,	2941
	963,	963,	1953,	964,	2942
	964,	964,	1954,	965,	2943
	965,	965,	1955,	966,	2944
	966,	966,	1956,	967,	2945
	967,	967,	1957,	968,	2946
	968,	968,	1958,	969,	2947
	969,	969,	1959,	970,	2948
	970,	970,	1960,	971,	2949
	971,	971,	1961,	972,	2950
	972,	972,	1962,	973,	2951
	973,	973,	1963,	974,	2952
	974,	974,	1964,	975,	2953
	975,	975,	1965,	976,	2954
	976,	976,	1966,	977,	2955
	977,	977,	1967,	978,	2956
	978,	978,	1968,	979,	2957
	979,	979,	1969,	980,	2958
	980,	980,	1970,	981,	2959
	981,	981,	1971,	982,	2960
	982,	982,	1972,	983,	2961
	983,	983,	1973,	984,	2962
	984,	984,	1974,	985,	2963
	985,	985,	1975,	986,	2964
	986,	986,	1976,	987,	2965
	987,	987,	1977,	988,	2966
	988,	988,	1978,	989,	2967
	989,	989,	1979,	990,	2968
*Nset, nset=CL_NODES, generate
    1,  1979,     1
*Elset, elset=ALL_ELEMENTS, generate
   1,  989,    1
*Nset, nset=START_NODE
 1,
*Elset, elset=_Surf-1_, internal, generate
   1,  989,    1
*Surface, type=ELEMENT, name=Surf-1
_Surf-1_, 
** Section: YARN Profile: CYLINDER
*BEAM GENERAL SECTION, ELSET=ALL_ELEMENTS, DENSITY=291.5924, POISSON=0.15, SECTION=NONLINEAR GENERAL
9.8768e-08, 7.7629e-16, 0, 7.7629e-16, 1.5526e-15
1.,0.,0.
*AXIAL, ELASTIC
-1.413701696814115216e+01, -5.000000000000000000e-01
0.000000000000000000e+00, 0.000000000000000000e+00
4.467514726862619745e-01, 1.580076877933479784e-02
8.921465596463883374e-01, 2.816319393288714210e-02
1.280015522599952993e+00, 4.552179247396198614e-02
1.602227679847883168e+00, 7.033166881150834659e-02
1.752080563535051816e+00, 1.015392390708750731e-01
1.874238696432554585e+00, 1.378332289690958612e-01
3.093217835147239470e+00, 5.000000000000000000e-01
*M1, LINEAR
1.908e-09
*M2, LINEAR
1.908e-09
*TORQUE, LINEAR
1.950e-07
*End Part
**  
*Part, name=NOZZLE
*End Part
**  
**
** ASSEMBLY
**
*Assembly, name=Assembly
**  
*Instance, name=INSTANCE-YARN, part=YARN
*End Instance
**  
*Instance, name=INSTANCE-NOZZLE, part=NOZZLE
          0.,           0.,           0.
          0.,           0.,           0.,           0.,           0.,          -1.,          90.
*Node
      1,           0.,           0.,           0.
*Nset, nset=INSTANCE-NOZZLE-RefPt_, internal
1, 
*Surface, type=REVOLUTION, name=RIGID
START,      0.04064,      -0.0352
 CIRCL, 0.00064,       0.0048,      0.04064,       0.0048
 LINE,      0.00064,       0.0352
 LINE,      0.00088,      0.04045
 LINE,       0.0013,  0.283102382
*Rigid Body, ref node=INSTANCE-NOZZLE-RefPt_, analytical surface=RIGID
*End Instance
**  
*Elset, elset=ALL_ELEMENTS, instance=INSTANCE-YARN, generate
   1,  989,    1
*Nset, nset=CL_NODES, instance=INSTANCE-YARN, generate
    1,  1979,     1
*Nset, nset=START_NODE, instance=INSTANCE-YARN
 1,
*Nset, nset=Set-8, instance=INSTANCE-NOZZLE
 1,
*End Assembly
** 
** INTERACTION PROPERTIES
** 
*Surface Interaction, name=IntProp-1
1.,
*Friction, slip tolerance=0.005
0.,
*Surface Behavior, pressure-overclosure=HARD
** 
** INTERACTIONS
** 
** Interaction: Int-1
*Contact Pair, interaction=IntProp-1
INSTANCE-YARN.Surf-1, INSTANCE-NOZZLE.RIGID
** ----------------------------------------------------------------
** 
** STEP: Step-1
** 
*Step, name=Step-1, nlgeom=YES, amplitude=STEP, inc=10005
*Dynamic,application=QUASI-STATIC,nohaf,initial=NO
5e-06,5e-06,5e-11,5e-06
*Solution Technique, type=QUASI-NEWTON
** 
** BOUNDARY CONDITIONS
** 
** Name: BC-1 Type: Displacement/Rotation
*Boundary
INSTANCE-YARN.START_NODE, 1, 1
INSTANCE-YARN.START_NODE, 2, 2
INSTANCE-YARN.START_NODE, 3, 3
** 
** Name: BC-2 Type: Symmetry/Antisymmetry/Encastre
*Boundary
Set-8, ENCASTRE
** 
** LOADS
** 
** Name: Load-1   Type: Line load
*Dload
INSTANCE-YARN.ALL_ELEMENTS, PXNU, 1.
INSTANCE-YARN.ALL_ELEMENTS, PYNU, 1.
INSTANCE-YARN.ALL_ELEMENTS, PZNU, 1.
** 
** Name: Gravity  Type: Gravity
*Dload
INSTANCE-YARN.ALL_ELEMENTS, GRAV, 9.81, 0, -1, 0
**
** OUTPUT REQUESTS
** 
*Restart, write, overlay, frequency=99999
** 
** FIELD OUTPUT: F-Output-1
** 
*Output, field, frequency=99999
*Node Output, nset=INSTANCE-YARN.CL_NODES
COORD, U
** 
** FIELD OUTPUT: F-Output-2
** 
*Output, field, variable=PRESELECT, frequency=99999
*Element Output, elset=INSTANCE-YARN.ALL_ELEMENTS, directions=YES, variable=PRESELECT
SF, SE, SM, ESF1, COORD
** 
** HISTORY OUTPUT: H-Output-1
** 
*Output, history, variable=PRESELECT, frequency=99999
*End Step
